FeH_exp1                                
   1.00000000000000     
    19.2062866418862797   -0.0003285506977890   -0.0078132164583141
    -0.0025557928542309   29.7645846028652201    2.2373540493740851
    -0.0028560759498511    0.4368921414469203    5.4501536461564761
   C    Fe   H    N    O 
    80     4    32    24    16
Direct
  0.8732182645627731  0.9657721396179682  0.1049168526391000
  0.9326036107441169  0.9799026108832223  0.4373052550392629
  0.8696431477317503  0.8178827994616782  0.8961176289450350
  0.6265896854714015  0.4657052091011380  0.6117504006931824
  0.5719257794397379  0.3025539105052530  0.0716438848400287
  0.0674930410484365  0.8009304042588852  0.0664243582992725
  0.5672304043823502  0.4798358032006789  0.9438313321141081
  0.6306276893527567  0.3176726520366557  0.4033611372112986
  0.4283395375125352  0.4781144750943440  0.4450575764403553
  0.1266351686016236  0.8150618979166353  0.3993506300724903
  0.0721321709928020  0.9780709730623087  0.9389942952337975
  0.4322478701012145  0.3008925606765516  0.5727096186923006
  0.9281057072761811  0.8027682111222276  0.5642391196227408
  0.1307531593347164  0.9629399434356216  0.6074875936494379
  0.3729711227482895  0.3151019472753873  0.9048209374682727
  0.3697062351234237  0.4629442519787972  0.1132408761725827
  0.7949420873811945  0.0408427129456825  0.4549431445059113
  0.8586150017071645  0.0739219620602825  0.0668643148776624
  0.8527864954048425  0.7100823516203931  0.9391938222999201
  0.6405910867800628  0.5738743800746349  0.5710062799201978
  0.6477097881235281  0.2097818317208109  0.4438840591907365
  0.2050605200539124  0.7397080922109254  0.0518206807045516
  0.7046925849156196  0.5412241526081871  0.9592905168672061
  0.7112060060976049  0.2428623963144219  0.0553743334457337
  0.2892812706009025  0.5380983920132749  0.4590603377843365
  0.1411510328034282  0.7069756718824891  0.4399855245789155
  0.1474937586452327  0.0708957610307266  0.5668774390231590
  0.3582930097883974  0.2069797122208286  0.9436999367332604
  0.7891138010201715  0.7426964371328495  0.5498990618759194
  0.2113258605561796  0.0378573594838230  0.9551328881953296
  0.2944321055845194  0.2399504318556893  0.5554987586479854
  0.3529701765666218  0.5708381123370998  0.0703986757609698
  0.7572609607731167  0.0842273208009132  0.4466784196724305
  0.8213445469385832  0.1171978597876873  0.0705746421030469
  0.8150531903512146  0.6668970642092589  0.9382976739526043
  0.6780810725877515  0.6171581090803997  0.5723855356002403
  0.6852652259112020  0.1665979557995598  0.4408373686086620
  0.2430184605352963  0.6963711191468391  0.0623081002054704
  0.7425874768273317  0.5845925354195813  0.9486786264722866
  0.7492920512851171  0.1995811598628023  0.0647043793475106
  0.2509869216274083  0.5813446908369428  0.4477896356535354
  0.1786086136992537  0.6636987277680291  0.4381706102523424
  0.1849725065503875  0.1141078992108575  0.5698763824267346
  0.3211060013968066  0.1636561789997657  0.9400380412226710
  0.7507189436562882  0.6994661660595369  0.5616805940535698
  0.2493269862013605  0.0811697245014003  0.9458242230886427
  0.2567555371985861  0.1965499187259780  0.5640345622347951
  0.3153502257855294  0.6140425613750722  0.0718325521419345
  0.7074073955675857  0.0887164680001646  0.6262368617221981
  0.8350812448489151  0.1541339903611956  0.8883181251440320
  0.8288063925994464  0.6302088351689221  0.1221164563290031
  0.6642799221929536  0.6538968181177651  0.3888649797309753
  0.6715818394783284  0.1296916154882126  0.6233034407189564
  0.2931491224011467  0.6917788340649409  0.8838660677410388
  0.7927465177691388  0.5892570246659119  0.1272423801374885
  0.7992085393901931  0.1951015290999933  0.8853413563065899
  0.2007667834389935  0.5859340498606826  0.6259334550028441
  0.1647500689085462  0.6268994248388324  0.6211175710953825
  0.1710615911738955  0.1510105010067235  0.3875544441064704
  0.3350440132582406  0.1267340899812552  0.1222606034626139
  0.7004362326242415  0.6948305032876121  0.3834918041918911
  0.2993371830281504  0.0857008586439036  0.1251186168716458
  0.2067849106439539  0.1920319021716992  0.3845906264446768
  0.3291456391623981  0.6508135215822861  0.8886556650758806
  0.8807841221129564  0.9971386031134770  0.2687186799915224
  0.8759774199080894  0.7863195748240699  0.7330195295113526
  0.6188236875553201  0.4971691774483489  0.7748417362309397
  0.6243053967679728  0.2861692315486408  0.2398624271316478
  0.1190752089899050  0.7836377732803470  0.2359255094026054
  0.3761525505475802  0.4945438973372731  0.2761230249304276
  0.1244090683564067  0.9944770488700740  0.7707432959876925
  0.3804521559246510  0.2837096272175970  0.7412166600143166
  0.7716022701645784  0.1210556817950277  0.2573872467305875
  0.7649839656704032  0.6628668057062654  0.7525330164884210
  0.7281622350624843  0.6212045983338399  0.7581274795718542
  0.7350491220093929  0.1627596070970796  0.2541632161767993
  0.2286147130629459  0.6596992120934928  0.2524312641272886
  0.2653233911485060  0.6180130921662510  0.2575314583643049
  0.2348585891326849  0.1179815250326541  0.7564766802992864
  0.2712856482483375  0.1597312866502776  0.7532667122139856
  0.9771343972225068  0.8906478067712911  0.0013234398236577
  0.0230140022935785  0.8902880260786716  0.5016976421366266
  0.5229728724173341  0.3904168513864477  0.5088136187632699
  0.4770811073104824  0.3900785842009427  0.0089516939654857
  0.3738150246382617  0.1307363915544428  0.2629514881705362
  0.8029803041768560  0.5603788292281706  0.2706735088725623
  0.8093391281123985  0.2241224049730945  0.7427181674055774
  0.6972148751324312  0.0596778350225122  0.7686679320758500
  0.6902457194014673  0.7236920283918096  0.2398615041115093
  0.6252781335385933  0.6498120660699200  0.2490729381344110
  0.1257970650835176  0.6309539340218819  0.7608758658278774
  0.1322384672266210  0.1470042470796926  0.2470412922046350
  0.8677853757376113  0.6343336828100874  0.2619410504818234
  0.1964426213224684  0.2210747439257972  0.2422804440930548
  0.1905198025738386  0.5570164594970421  0.7690612549145968
  0.3033807624207867  0.7207069243469135  0.7407536098253829
  0.3680872477094326  0.6467422112082346  0.7489067838733661
  0.6328361599539107  0.1336704612287960  0.7638646654954897
  0.8737889246569210  0.1501653108002401  0.7475943321006540
  0.3096586132612131  0.0566766468762978  0.2676153858641328
  0.5456480728004536  0.4939180147089672  0.0989791776179061
  0.4536697523524964  0.2868113988914160  0.4173180850002325
  0.3362860574877189  0.4636698235249526  0.9521798571790896
  0.1600537142268337  0.8138024777534483  0.5607624477732145
  0.0512184381824454  0.9925064830828845  0.0939907251344536
  0.3394380946239934  0.3138960929592116  0.0656997151478933
  0.8396576089711232  0.9670117119549886  0.9438859010312655
  0.9489239641176397  0.7883166327738778  0.4091355402980454
  0.1642101151116648  0.9636683169519245  0.4467372737113067
  0.6600699626706543  0.4669815022638630  0.4506936468968590
  0.5509978149566805  0.2881215494027103  0.9165266918820762
  0.9541261399685865  0.9939581475243173  0.5927605592414267
  0.6641159298732973  0.3169514983120649  0.5642281733882157
  0.4492716031118960  0.4926036017211999  0.6000033488562337
  0.0460775308453165  0.7868755296650320  0.9107977659333457
  0.8363198308139275  0.8171343005644616  0.0572151591266774
  0.9180418988620715  0.9314203194849355  0.1739730426277433
  0.9544740620685417  0.9400766107926017  0.3774393888716645
  0.9154645738038525  0.8516239684283775  0.8265497181792654
  0.5821003887766807  0.4312052708354130  0.6815494460665477
  0.5485836519074567  0.3420586003906294  0.1313285820564332
  0.0457557405618090  0.8408448941049826  0.1255259012727876
  0.5456895725082731  0.4398585974150961  0.8848418915505789
  0.5845993503803442  0.3513321564837142  0.3344465615699193
  0.4514689043392295  0.4384876549957397  0.3863199477973538
  0.0820525001467018  0.8495021993573957  0.3292700993552771
  0.0488347874884099  0.9385393484574465  0.8794578572567175
  0.4541809768032365  0.3407278795995339  0.6324612882605862
  0.9513382082070336  0.8423486885650817  0.6233793172144431
  0.0848079102649919  0.9292471375257563  0.6765291788714123
  0.4178192160609697  0.3494272513608934  0.8357594170197800
  0.4154935161998665  0.4291825452881426  0.1831721690273937
  0.8438135878021669  0.0385443857925978  0.2640120330413396
  0.8381748106081446  0.7451720300056834  0.7403047734479884
  0.6555968233886063  0.5386869625161239  0.7690338894872539
  0.6622319189175556  0.2450937380707003  0.2460828088432621
  0.1560011201497673  0.7421821047782657  0.2419594661937197
  0.3383611774243320  0.5356916733182331  0.2689009207497506
  0.1622463092942610  0.0355893544210986  0.7644958156361668
  0.3434301392195422  0.2423090160868568  0.7462837172868078
  0.7845186300354356  0.0079491969017056  0.6162178672395839
  0.9001940853887689  0.0682612877876494  0.9034199109181884
  0.8947137592389964  0.7158599673669030  0.1016369601592118
  0.5986868803571213  0.5680637574005516  0.4085664190944982
  0.6059992460164665  0.2153892768546655  0.6070442332732071
  0.2154487933607925  0.7724089339598521  0.8893610937998844
  0.7151817612949500  0.5085462036007726  0.1218765350882336
  0.7212628596722155  0.2756613866574966  0.8932014759133722
  0.2792915417568054  0.5054596125432411  0.6222575283767000
  0.0993953982038533  0.7127553883120257  0.6026661371309814
  0.1056543513074359  0.0652718878227390  0.4038817500890204
  0.3999220241681414  0.2126702098599580  0.1072031439049823
  0.7791796819040684  0.7752646777111565  0.3861406821082554
  0.2214889187393538  0.0050686617199744  0.1173181995289880
  0.2839313582753675  0.2727929005295593  0.3939445554027827
  0.3947728705215425  0.5650938376932046  0.9077909682986487
 
  0.00000000E+00  0.00000000E+00  0.00000000E+00
  0.00000000E+00  0.00000000E+00  0.00000000E+00
  0.00000000E+00  0.00000000E+00  0.00000000E+00
  0.00000000E+00  0.00000000E+00  0.00000000E+00
  0.00000000E+00  0.00000000E+00  0.00000000E+00
  0.00000000E+00  0.00000000E+00  0.00000000E+00
  0.00000000E+00  0.00000000E+00  0.00000000E+00
  0.00000000E+00  0.00000000E+00  0.00000000E+00
  0.00000000E+00  0.00000000E+00  0.00000000E+00
  0.00000000E+00  0.00000000E+00  0.00000000E+00
  0.00000000E+00  0.00000000E+00  0.00000000E+00
  0.00000000E+00  0.00000000E+00  0.00000000E+00
  0.00000000E+00  0.00000000E+00  0.00000000E+00
  0.00000000E+00  0.00000000E+00  0.00000000E+00
  0.00000000E+00  0.00000000E+00  0.00000000E+00
  0.00000000E+00  0.00000000E+00  0.00000000E+00
  0.00000000E+00  0.00000000E+00  0.00000000E+00
  0.00000000E+00  0.00000000E+00  0.00000000E+00
  0.00000000E+00  0.00000000E+00  0.00000000E+00
  0.00000000E+00  0.00000000E+00  0.00000000E+00
  0.00000000E+00  0.00000000E+00  0.00000000E+00
  0.00000000E+00  0.00000000E+00  0.00000000E+00
  0.00000000E+00  0.00000000E+00  0.00000000E+00
  0.00000000E+00  0.00000000E+00  0.00000000E+00
  0.00000000E+00  0.00000000E+00  0.00000000E+00
  0.00000000E+00  0.00000000E+00  0.00000000E+00
  0.00000000E+00  0.00000000E+00  0.00000000E+00
  0.00000000E+00  0.00000000E+00  0.00000000E+00
  0.00000000E+00  0.00000000E+00  0.00000000E+00
  0.00000000E+00  0.00000000E+00  0.00000000E+00
  0.00000000E+00  0.00000000E+00  0.00000000E+00
  0.00000000E+00  0.00000000E+00  0.00000000E+00
  0.00000000E+00  0.00000000E+00  0.00000000E+00
  0.00000000E+00  0.00000000E+00  0.00000000E+00
  0.00000000E+00  0.00000000E+00  0.00000000E+00
  0.00000000E+00  0.00000000E+00  0.00000000E+00
  0.00000000E+00  0.00000000E+00  0.00000000E+00
  0.00000000E+00  0.00000000E+00  0.00000000E+00
  0.00000000E+00  0.00000000E+00  0.00000000E+00
  0.00000000E+00  0.00000000E+00  0.00000000E+00
  0.00000000E+00  0.00000000E+00  0.00000000E+00
  0.00000000E+00  0.00000000E+00  0.00000000E+00
  0.00000000E+00  0.00000000E+00  0.00000000E+00
  0.00000000E+00  0.00000000E+00  0.00000000E+00
  0.00000000E+00  0.00000000E+00  0.00000000E+00
  0.00000000E+00  0.00000000E+00  0.00000000E+00
  0.00000000E+00  0.00000000E+00  0.00000000E+00
  0.00000000E+00  0.00000000E+00  0.00000000E+00
  0.00000000E+00  0.00000000E+00  0.00000000E+00
  0.00000000E+00  0.00000000E+00  0.00000000E+00
  0.00000000E+00  0.00000000E+00  0.00000000E+00
  0.00000000E+00  0.00000000E+00  0.00000000E+00
  0.00000000E+00  0.00000000E+00  0.00000000E+00
  0.00000000E+00  0.00000000E+00  0.00000000E+00
  0.00000000E+00  0.00000000E+00  0.00000000E+00
  0.00000000E+00  0.00000000E+00  0.00000000E+00
  0.00000000E+00  0.00000000E+00  0.00000000E+00
  0.00000000E+00  0.00000000E+00  0.00000000E+00
  0.00000000E+00  0.00000000E+00  0.00000000E+00
  0.00000000E+00  0.00000000E+00  0.00000000E+00
  0.00000000E+00  0.00000000E+00  0.00000000E+00
  0.00000000E+00  0.00000000E+00  0.00000000E+00
  0.00000000E+00  0.00000000E+00  0.00000000E+00
  0.00000000E+00  0.00000000E+00  0.00000000E+00
  0.00000000E+00  0.00000000E+00  0.00000000E+00
  0.00000000E+00  0.00000000E+00  0.00000000E+00
  0.00000000E+00  0.00000000E+00  0.00000000E+00
  0.00000000E+00  0.00000000E+00  0.00000000E+00
  0.00000000E+00  0.00000000E+00  0.00000000E+00
  0.00000000E+00  0.00000000E+00  0.00000000E+00
  0.00000000E+00  0.00000000E+00  0.00000000E+00
  0.00000000E+00  0.00000000E+00  0.00000000E+00
  0.00000000E+00  0.00000000E+00  0.00000000E+00
  0.00000000E+00  0.00000000E+00  0.00000000E+00
  0.00000000E+00  0.00000000E+00  0.00000000E+00
  0.00000000E+00  0.00000000E+00  0.00000000E+00
  0.00000000E+00  0.00000000E+00  0.00000000E+00
  0.00000000E+00  0.00000000E+00  0.00000000E+00
  0.00000000E+00  0.00000000E+00  0.00000000E+00
  0.00000000E+00  0.00000000E+00  0.00000000E+00
  0.00000000E+00  0.00000000E+00  0.00000000E+00
  0.00000000E+00  0.00000000E+00  0.00000000E+00
  0.00000000E+00  0.00000000E+00  0.00000000E+00
  0.00000000E+00  0.00000000E+00  0.00000000E+00
  0.00000000E+00  0.00000000E+00  0.00000000E+00
  0.00000000E+00  0.00000000E+00  0.00000000E+00
  0.00000000E+00  0.00000000E+00  0.00000000E+00
  0.00000000E+00  0.00000000E+00  0.00000000E+00
  0.00000000E+00  0.00000000E+00  0.00000000E+00
  0.00000000E+00  0.00000000E+00  0.00000000E+00
  0.00000000E+00  0.00000000E+00  0.00000000E+00
  0.00000000E+00  0.00000000E+00  0.00000000E+00
  0.00000000E+00  0.00000000E+00  0.00000000E+00
  0.00000000E+00  0.00000000E+00  0.00000000E+00
  0.00000000E+00  0.00000000E+00  0.00000000E+00
  0.00000000E+00  0.00000000E+00  0.00000000E+00
  0.00000000E+00  0.00000000E+00  0.00000000E+00
  0.00000000E+00  0.00000000E+00  0.00000000E+00
  0.00000000E+00  0.00000000E+00  0.00000000E+00
  0.00000000E+00  0.00000000E+00  0.00000000E+00
  0.00000000E+00  0.00000000E+00  0.00000000E+00
  0.00000000E+00  0.00000000E+00  0.00000000E+00
  0.00000000E+00  0.00000000E+00  0.00000000E+00
  0.00000000E+00  0.00000000E+00  0.00000000E+00
  0.00000000E+00  0.00000000E+00  0.00000000E+00
  0.00000000E+00  0.00000000E+00  0.00000000E+00
  0.00000000E+00  0.00000000E+00  0.00000000E+00
  0.00000000E+00  0.00000000E+00  0.00000000E+00
  0.00000000E+00  0.00000000E+00  0.00000000E+00
  0.00000000E+00  0.00000000E+00  0.00000000E+00
  0.00000000E+00  0.00000000E+00  0.00000000E+00
  0.00000000E+00  0.00000000E+00  0.00000000E+00
  0.00000000E+00  0.00000000E+00  0.00000000E+00
  0.00000000E+00  0.00000000E+00  0.00000000E+00
  0.00000000E+00  0.00000000E+00  0.00000000E+00
  0.00000000E+00  0.00000000E+00  0.00000000E+00
  0.00000000E+00  0.00000000E+00  0.00000000E+00
  0.00000000E+00  0.00000000E+00  0.00000000E+00
  0.00000000E+00  0.00000000E+00  0.00000000E+00
  0.00000000E+00  0.00000000E+00  0.00000000E+00
  0.00000000E+00  0.00000000E+00  0.00000000E+00
  0.00000000E+00  0.00000000E+00  0.00000000E+00
  0.00000000E+00  0.00000000E+00  0.00000000E+00
  0.00000000E+00  0.00000000E+00  0.00000000E+00
  0.00000000E+00  0.00000000E+00  0.00000000E+00
  0.00000000E+00  0.00000000E+00  0.00000000E+00
  0.00000000E+00  0.00000000E+00  0.00000000E+00
  0.00000000E+00  0.00000000E+00  0.00000000E+00
  0.00000000E+00  0.00000000E+00  0.00000000E+00
  0.00000000E+00  0.00000000E+00  0.00000000E+00
  0.00000000E+00  0.00000000E+00  0.00000000E+00
  0.00000000E+00  0.00000000E+00  0.00000000E+00
  0.00000000E+00  0.00000000E+00  0.00000000E+00
  0.00000000E+00  0.00000000E+00  0.00000000E+00
  0.00000000E+00  0.00000000E+00  0.00000000E+00
  0.00000000E+00  0.00000000E+00  0.00000000E+00
  0.00000000E+00  0.00000000E+00  0.00000000E+00
  0.00000000E+00  0.00000000E+00  0.00000000E+00
  0.00000000E+00  0.00000000E+00  0.00000000E+00
  0.00000000E+00  0.00000000E+00  0.00000000E+00
  0.00000000E+00  0.00000000E+00  0.00000000E+00
  0.00000000E+00  0.00000000E+00  0.00000000E+00
  0.00000000E+00  0.00000000E+00  0.00000000E+00
  0.00000000E+00  0.00000000E+00  0.00000000E+00
  0.00000000E+00  0.00000000E+00  0.00000000E+00
  0.00000000E+00  0.00000000E+00  0.00000000E+00
  0.00000000E+00  0.00000000E+00  0.00000000E+00
  0.00000000E+00  0.00000000E+00  0.00000000E+00
  0.00000000E+00  0.00000000E+00  0.00000000E+00
  0.00000000E+00  0.00000000E+00  0.00000000E+00
  0.00000000E+00  0.00000000E+00  0.00000000E+00
  0.00000000E+00  0.00000000E+00  0.00000000E+00
  0.00000000E+00  0.00000000E+00  0.00000000E+00
  0.00000000E+00  0.00000000E+00  0.00000000E+00
  0.00000000E+00  0.00000000E+00  0.00000000E+00
  0.00000000E+00  0.00000000E+00  0.00000000E+00
