CoH_middle                              
   1.00000000000000     
     8.7388749298206641   -0.0012282270191092   -0.0017328716353557
     0.0002510637056943   32.6750955090059136   -2.8654743178986131
    -0.0006059524644675   -0.5876868709201202    6.6187358396006584
   C    Co   H    N    O 
    80     4    32    24    16
Direct
  0.8930743694769419  0.9572585707107564  0.1499780395228498
  0.7660111367595732  0.9513259251080797  0.4343908800012173
  0.8938899613303235  0.7985164358058512  0.8966728012451597
  0.6067664507658748  0.4571451916177480  0.6479798808475437
  0.7332134441311808  0.3043373779640532  0.1111890407682665
  0.2291912032948886  0.8044964049198526  0.1124182237183433
  0.7335731912545143  0.4512948071518039  0.9327745059745567
  0.6056236717922587  0.2984613205873785  0.3953032346882779
  0.2709862195418538  0.4515041966155167  0.4326932009727500
  0.1022591838259430  0.7985522515626116  0.3969000357979695
  0.2287747129425668  0.9515401309027141  0.9343426073493291
  0.2703733166241875  0.3043881575191776  0.6109599580980216
  0.7665444916343489  0.8043643296835299  0.6122878049371394
  0.1015718865702269  0.9573045100307951  0.6497029759473918
  0.3975596345332164  0.2985170830840502  0.8954398583566672
  0.3980322365751192  0.4572532405280541  0.1480122187070521
  0.6876883532399702  0.0322758183657328  0.1375714059029249
  0.8275496187910107  0.0498811960392445  0.4710264931437820
  0.8289840244522608  0.7058993138499901  0.5754694060884091
  0.6717514821866928  0.5497276375079210  0.9692361682700295
  0.6708276207062340  0.2058082346260761  0.0749000114214056
  0.3085205886657008  0.7236671162769568  0.4091750872002535
  0.8119274119915332  0.5322664439360594  0.6360455722915646
  0.8109160783957421  0.2234281885368929  0.4081898324122832
  0.1930052124585799  0.5322688878356772  0.1349115748877097
  0.1689875298598125  0.7059140345996866  0.0755541107808071
  0.1680334601810500  0.0500724794322736  0.9699901581679171
  0.3306199606463167  0.2057882500024135  0.5749586796637374
  0.6891966086721482  0.7233548054464549  0.9089260492752729
  0.3069160554706016  0.0322209811076490  0.6360258955897606
  0.1914120858279205  0.2236577866375598  0.9086190378718513
  0.3319480153341203  0.5500039722607326  0.4689516823476723
  0.6865009704226992  0.0768790727585653  0.1235687316042942
  0.8170155919112716  0.0942808396779142  0.4554818804109360
  0.8184834300199952  0.6614798152290717  0.5905147094844381
  0.6825764724145031  0.5941465754442845  0.9543385918241825
  0.6813134044134657  0.1614148569757035  0.0905050225131845
  0.3112760705730153  0.6790393574387039  0.4225224190848280
  0.8131204065136046  0.5768885325542286  0.6224697996287247
  0.8118903233031034  0.1788325440542309  0.4223533199870175
  0.1903634080506293  0.5768890204738071  0.1214779883482606
  0.1814518504567744  0.6615006527548672  0.0901753017716374
  0.1801152222390670  0.0944658621783034  0.9546856658202287
  0.3184098008610547  0.1613983693564123  0.5901938362990933
  0.6880851489119166  0.6787393397741539  0.9224756889126837
  0.3096262409997550  0.0768237616936744  0.6222459592857135
  0.1886929921426130  0.1790466190906130  0.9224228865385200
  0.3199259752923851  0.5944176556363701  0.4540160173039851
  0.6234571844003796  0.0895290491754324  0.9528278948685198
  0.8780935727785320  0.1240700374926718  0.6093076339092036
  0.8795478442604221  0.6317707441702041  0.4364172138840630
  0.6217113543815742  0.6238645073357745  0.1085241596245510
  0.6202041490217240  0.1316385906839130  0.9366807739665859
  0.3748254276724126  0.6664263198480498  0.5930401816332633
  0.8762492799986248  0.5896326494736428  0.4520600939616415
  0.8748287571050071  0.1661794356103172  0.5931163268414750
  0.1269334750570863  0.5894920105503161  0.9508689712332767
  0.1217246423140423  0.6316364594526362  0.9356125257179855
  0.1201778318971094  0.1243735765002469  0.1088165916661765
  0.3781485894362149  0.1314926624400385  0.4358976228218197
  0.6251629168532205  0.6660038029838304  0.0930050199815042
  0.3729666263305020  0.0893679349746677  0.4514761057725778
  0.1251469689630795  0.1664969549998006  0.0930600618606761
  0.3797775327509640  0.6242854114019281  0.6084673311220996
  0.7975294848890044  0.9787416197924443  0.3004999909971602
  0.7984372464737106  0.7769741266933963  0.7461700127515272
  0.7022291872303086  0.4786604267492933  0.7985799167576459
  0.7012466502010923  0.2769437687917176  0.2450351282997900
  0.1977371964507313  0.7770734291092722  0.2462927784639106
  0.3027236986467869  0.4788412546151406  0.2985002336229599
  0.1970836156274345  0.9788704976935279  0.8000474887281683
  0.3019374721288912  0.2770053583275143  0.7450300577481954
  0.7502600347092496  0.1065091855735503  0.2815470462925447
  0.7517199096462264  0.6491714401992823  0.7642126492227561
  0.7493846400012885  0.6064543231793209  0.7806806837894342
  0.7480971191915629  0.1491994772082137  0.2644480211362605
  0.2487368559779028  0.6493242284458489  0.2639421302384548
  0.2527617769821688  0.6065997841607498  0.2801796411696245
  0.2472912275734913  0.1065770205696737  0.7807363799526001
  0.2512079191710797  0.1492836483873532  0.7641118683173360
  0.0489932140073108  0.8779355663893398  0.0233055137870437
  0.9464584108409682  0.8778967476567843  0.5233074173256398
  0.4504985907143180  0.3778780118177423  0.5216778416073993
  0.5532258760682396  0.3778483858884769  0.0218869300747073
  0.4286280727220344  0.1414833608869728  0.3029215943585513
  0.9215796764502358  0.5660766135837605  0.3308352232760257
  0.9201042564993571  0.1897954699614104  0.7141305768293407
  0.5781182196809382  0.0659252249470725  0.8317728389592531
  0.5801289774605252  0.6895727185070228  0.2143825125327865
  0.5716323246795980  0.6137229111518323  0.2413077934625889
  0.0711520405850976  0.6416707674024948  0.8027945477854956
  0.0696219603595694  0.1143867204124263  0.2417655383918600
  0.9297172490043408  0.6419383686121378  0.3037321047350829
  0.0807191555653688  0.1902047089272259  0.2142742107381821
  0.0827372500154411  0.5658183541294548  0.8292725733691171
  0.4191550539413598  0.6900979720681590  0.7145393194522214
  0.4302708901049073  0.6142716048815728  0.7413773184210299
  0.5700987612936217  0.1417465775382993  0.8037612410662476
  0.9282173113290995  0.1140152477304355  0.7423380258004073
  0.4171164993936927  0.0656541862395557  0.3300903794520877
  0.8000080746315987  0.4558922304711714  0.0730333621556198
  0.2037020304650952  0.2998071105230764  0.4708961485650107
  0.4481801608063236  0.4677907831527293  0.0171945405085054
  0.0522980644966466  0.7879342052579688  0.5276587048353818
  0.2953352642887026  0.9561967521855266  0.0745124066880862
  0.4476601521859322  0.2879318674599389  0.0261928200674930
  0.9431478521647918  0.9678925671757455  0.0193428560218649
  0.6999131740267401  0.7997601423206362  0.4721838588680143
  0.0513152691098924  0.9678677045112565  0.5190101114675016
  0.5567853595540058  0.4677443083154316  0.5171647863167266
  0.7999456049788520  0.2997333767422461  0.9712138217773187
  0.6994041996044018  0.9558862058141528  0.5744526142621496
  0.5552394438943153  0.2878678883783365  0.5258347472298794
  0.2045146112588725  0.4561626803007499  0.5728755221438391
  0.2957422671975465  0.7999440506775528  0.9723243737211646
  0.9441370363831609  0.7879196889886373  0.0273121516292107
  0.9193486078185273  0.9193071210123733  0.1921056931128788
  0.8409046755503198  0.9152886153721056  0.3670457640337474
  0.9197798849306906  0.8364858984884975  0.8545708199697870
  0.5803637176482610  0.4192160240687457  0.6903448147965392
  0.6584455974870096  0.3404089244091608  0.1783344750900469
  0.1542825422684118  0.8405267871917985  0.1797408383067065
  0.6586465307538134  0.4152462439794036  0.8655319258313767
  0.5797135893347303  0.3364212514378764  0.3530874181201611
  0.3455775520343920  0.4154045721944684  0.3655967272583212
  0.0759475840140880  0.8365032124837910  0.3547585622030169
  0.1539975331467218  0.9154620805593652  0.8672943347580642
  0.3453421804610599  0.3404327899964059  0.6780961033525301
  0.8411743072069200  0.8404569376364464  0.6796366164086791
  0.0754905581288696  0.9193766730792774  0.6922144312730225
  0.4238410299835351  0.3364512767913652  0.8531057823273329
  0.4240143948079336  0.4193145323138197  0.1904854640008580
  0.7614321120132601  0.0213883618374382  0.3105084790514212
  0.7627066235962587  0.7343128236710399  0.7360620454033011
  0.7381624580168449  0.5213137082209300  0.8087625048599065
  0.7371217607957874  0.2342957179010696  0.2352629288714283
  0.2344184603703283  0.7344730070982024  0.2363108469182365
  0.2665186285470398  0.5214604648413257  0.3081515012580738
  0.2334191016467742  0.0214787154174303  0.8093983754832976
  0.2653260598626375  0.2344015124080343  0.7355279835053068
  0.6297592052814878  0.0058450612761760  0.0058421789750795
  0.8922675417497175  0.0381021666536796  0.6151508963350594
  0.8936911350988481  0.7177618206995433  0.4316019197282657
  0.6066261113747231  0.5378707116792398  0.1128077156322789
  0.6061273894545494  0.2175954677718650  0.9307891813274978
  0.3656303353631714  0.7501721264615213  0.5412693192476112
  0.8699548711818537  0.5058760059972869  0.5042805841656630
  0.8691437201910119  0.2498550460126978  0.5396729223595855
  0.1360318146965014  0.5057621155108123  0.0027076725141342
  0.1034389792969463  0.7176361450254447  0.9318803797833510
  0.1029094454500736  0.0383727138848400  0.1139980416363500
  0.3958089292264404  0.2174521678144785  0.4309029009848402
  0.6312176839526700  0.7497270917326517  0.0408309989793381
  0.3637233287151815  0.0056808631765008  0.5038877367741179
  0.1344115610756091  0.2501970829096507  0.0405826742761022
  0.3970057333136481  0.5382694133175008  0.6129588474495833
 
  0.00000000E+00  0.00000000E+00  0.00000000E+00
  0.00000000E+00  0.00000000E+00  0.00000000E+00
  0.00000000E+00  0.00000000E+00  0.00000000E+00
  0.00000000E+00  0.00000000E+00  0.00000000E+00
  0.00000000E+00  0.00000000E+00  0.00000000E+00
  0.00000000E+00  0.00000000E+00  0.00000000E+00
  0.00000000E+00  0.00000000E+00  0.00000000E+00
  0.00000000E+00  0.00000000E+00  0.00000000E+00
  0.00000000E+00  0.00000000E+00  0.00000000E+00
  0.00000000E+00  0.00000000E+00  0.00000000E+00
  0.00000000E+00  0.00000000E+00  0.00000000E+00
  0.00000000E+00  0.00000000E+00  0.00000000E+00
  0.00000000E+00  0.00000000E+00  0.00000000E+00
  0.00000000E+00  0.00000000E+00  0.00000000E+00
  0.00000000E+00  0.00000000E+00  0.00000000E+00
  0.00000000E+00  0.00000000E+00  0.00000000E+00
  0.00000000E+00  0.00000000E+00  0.00000000E+00
  0.00000000E+00  0.00000000E+00  0.00000000E+00
  0.00000000E+00  0.00000000E+00  0.00000000E+00
  0.00000000E+00  0.00000000E+00  0.00000000E+00
  0.00000000E+00  0.00000000E+00  0.00000000E+00
  0.00000000E+00  0.00000000E+00  0.00000000E+00
  0.00000000E+00  0.00000000E+00  0.00000000E+00
  0.00000000E+00  0.00000000E+00  0.00000000E+00
  0.00000000E+00  0.00000000E+00  0.00000000E+00
  0.00000000E+00  0.00000000E+00  0.00000000E+00
  0.00000000E+00  0.00000000E+00  0.00000000E+00
  0.00000000E+00  0.00000000E+00  0.00000000E+00
  0.00000000E+00  0.00000000E+00  0.00000000E+00
  0.00000000E+00  0.00000000E+00  0.00000000E+00
  0.00000000E+00  0.00000000E+00  0.00000000E+00
  0.00000000E+00  0.00000000E+00  0.00000000E+00
  0.00000000E+00  0.00000000E+00  0.00000000E+00
  0.00000000E+00  0.00000000E+00  0.00000000E+00
  0.00000000E+00  0.00000000E+00  0.00000000E+00
  0.00000000E+00  0.00000000E+00  0.00000000E+00
  0.00000000E+00  0.00000000E+00  0.00000000E+00
  0.00000000E+00  0.00000000E+00  0.00000000E+00
  0.00000000E+00  0.00000000E+00  0.00000000E+00
  0.00000000E+00  0.00000000E+00  0.00000000E+00
  0.00000000E+00  0.00000000E+00  0.00000000E+00
  0.00000000E+00  0.00000000E+00  0.00000000E+00
  0.00000000E+00  0.00000000E+00  0.00000000E+00
  0.00000000E+00  0.00000000E+00  0.00000000E+00
  0.00000000E+00  0.00000000E+00  0.00000000E+00
  0.00000000E+00  0.00000000E+00  0.00000000E+00
  0.00000000E+00  0.00000000E+00  0.00000000E+00
  0.00000000E+00  0.00000000E+00  0.00000000E+00
  0.00000000E+00  0.00000000E+00  0.00000000E+00
  0.00000000E+00  0.00000000E+00  0.00000000E+00
  0.00000000E+00  0.00000000E+00  0.00000000E+00
  0.00000000E+00  0.00000000E+00  0.00000000E+00
  0.00000000E+00  0.00000000E+00  0.00000000E+00
  0.00000000E+00  0.00000000E+00  0.00000000E+00
  0.00000000E+00  0.00000000E+00  0.00000000E+00
  0.00000000E+00  0.00000000E+00  0.00000000E+00
  0.00000000E+00  0.00000000E+00  0.00000000E+00
  0.00000000E+00  0.00000000E+00  0.00000000E+00
  0.00000000E+00  0.00000000E+00  0.00000000E+00
  0.00000000E+00  0.00000000E+00  0.00000000E+00
  0.00000000E+00  0.00000000E+00  0.00000000E+00
  0.00000000E+00  0.00000000E+00  0.00000000E+00
  0.00000000E+00  0.00000000E+00  0.00000000E+00
  0.00000000E+00  0.00000000E+00  0.00000000E+00
  0.00000000E+00  0.00000000E+00  0.00000000E+00
  0.00000000E+00  0.00000000E+00  0.00000000E+00
  0.00000000E+00  0.00000000E+00  0.00000000E+00
  0.00000000E+00  0.00000000E+00  0.00000000E+00
  0.00000000E+00  0.00000000E+00  0.00000000E+00
  0.00000000E+00  0.00000000E+00  0.00000000E+00
  0.00000000E+00  0.00000000E+00  0.00000000E+00
  0.00000000E+00  0.00000000E+00  0.00000000E+00
  0.00000000E+00  0.00000000E+00  0.00000000E+00
  0.00000000E+00  0.00000000E+00  0.00000000E+00
  0.00000000E+00  0.00000000E+00  0.00000000E+00
  0.00000000E+00  0.00000000E+00  0.00000000E+00
  0.00000000E+00  0.00000000E+00  0.00000000E+00
  0.00000000E+00  0.00000000E+00  0.00000000E+00
  0.00000000E+00  0.00000000E+00  0.00000000E+00
  0.00000000E+00  0.00000000E+00  0.00000000E+00
  0.00000000E+00  0.00000000E+00  0.00000000E+00
  0.00000000E+00  0.00000000E+00  0.00000000E+00
  0.00000000E+00  0.00000000E+00  0.00000000E+00
  0.00000000E+00  0.00000000E+00  0.00000000E+00
  0.00000000E+00  0.00000000E+00  0.00000000E+00
  0.00000000E+00  0.00000000E+00  0.00000000E+00
  0.00000000E+00  0.00000000E+00  0.00000000E+00
  0.00000000E+00  0.00000000E+00  0.00000000E+00
  0.00000000E+00  0.00000000E+00  0.00000000E+00
  0.00000000E+00  0.00000000E+00  0.00000000E+00
  0.00000000E+00  0.00000000E+00  0.00000000E+00
  0.00000000E+00  0.00000000E+00  0.00000000E+00
  0.00000000E+00  0.00000000E+00  0.00000000E+00
  0.00000000E+00  0.00000000E+00  0.00000000E+00
  0.00000000E+00  0.00000000E+00  0.00000000E+00
  0.00000000E+00  0.00000000E+00  0.00000000E+00
  0.00000000E+00  0.00000000E+00  0.00000000E+00
  0.00000000E+00  0.00000000E+00  0.00000000E+00
  0.00000000E+00  0.00000000E+00  0.00000000E+00
  0.00000000E+00  0.00000000E+00  0.00000000E+00
  0.00000000E+00  0.00000000E+00  0.00000000E+00
  0.00000000E+00  0.00000000E+00  0.00000000E+00
  0.00000000E+00  0.00000000E+00  0.00000000E+00
  0.00000000E+00  0.00000000E+00  0.00000000E+00
  0.00000000E+00  0.00000000E+00  0.00000000E+00
  0.00000000E+00  0.00000000E+00  0.00000000E+00
  0.00000000E+00  0.00000000E+00  0.00000000E+00
  0.00000000E+00  0.00000000E+00  0.00000000E+00
  0.00000000E+00  0.00000000E+00  0.00000000E+00
  0.00000000E+00  0.00000000E+00  0.00000000E+00
  0.00000000E+00  0.00000000E+00  0.00000000E+00
  0.00000000E+00  0.00000000E+00  0.00000000E+00
  0.00000000E+00  0.00000000E+00  0.00000000E+00
  0.00000000E+00  0.00000000E+00  0.00000000E+00
  0.00000000E+00  0.00000000E+00  0.00000000E+00
  0.00000000E+00  0.00000000E+00  0.00000000E+00
  0.00000000E+00  0.00000000E+00  0.00000000E+00
  0.00000000E+00  0.00000000E+00  0.00000000E+00
  0.00000000E+00  0.00000000E+00  0.00000000E+00
  0.00000000E+00  0.00000000E+00  0.00000000E+00
  0.00000000E+00  0.00000000E+00  0.00000000E+00
  0.00000000E+00  0.00000000E+00  0.00000000E+00
  0.00000000E+00  0.00000000E+00  0.00000000E+00
  0.00000000E+00  0.00000000E+00  0.00000000E+00
  0.00000000E+00  0.00000000E+00  0.00000000E+00
  0.00000000E+00  0.00000000E+00  0.00000000E+00
  0.00000000E+00  0.00000000E+00  0.00000000E+00
  0.00000000E+00  0.00000000E+00  0.00000000E+00
  0.00000000E+00  0.00000000E+00  0.00000000E+00
  0.00000000E+00  0.00000000E+00  0.00000000E+00
  0.00000000E+00  0.00000000E+00  0.00000000E+00
  0.00000000E+00  0.00000000E+00  0.00000000E+00
  0.00000000E+00  0.00000000E+00  0.00000000E+00
  0.00000000E+00  0.00000000E+00  0.00000000E+00
  0.00000000E+00  0.00000000E+00  0.00000000E+00
  0.00000000E+00  0.00000000E+00  0.00000000E+00
  0.00000000E+00  0.00000000E+00  0.00000000E+00
  0.00000000E+00  0.00000000E+00  0.00000000E+00
  0.00000000E+00  0.00000000E+00  0.00000000E+00
  0.00000000E+00  0.00000000E+00  0.00000000E+00
  0.00000000E+00  0.00000000E+00  0.00000000E+00
  0.00000000E+00  0.00000000E+00  0.00000000E+00
  0.00000000E+00  0.00000000E+00  0.00000000E+00
  0.00000000E+00  0.00000000E+00  0.00000000E+00
  0.00000000E+00  0.00000000E+00  0.00000000E+00
  0.00000000E+00  0.00000000E+00  0.00000000E+00
  0.00000000E+00  0.00000000E+00  0.00000000E+00
  0.00000000E+00  0.00000000E+00  0.00000000E+00
  0.00000000E+00  0.00000000E+00  0.00000000E+00
  0.00000000E+00  0.00000000E+00  0.00000000E+00
  0.00000000E+00  0.00000000E+00  0.00000000E+00
  0.00000000E+00  0.00000000E+00  0.00000000E+00
  0.00000000E+00  0.00000000E+00  0.00000000E+00
  0.00000000E+00  0.00000000E+00  0.00000000E+00
  0.00000000E+00  0.00000000E+00  0.00000000E+00
  0.00000000E+00  0.00000000E+00  0.00000000E+00
