CoH_exp10                               
   1.00000000000000     
    24.6277439892047632   -0.0002956247369518   -0.0008272620959967
     0.0004032125664276   24.6311776580600252    2.8341644887020752
     0.0003354773911199    0.1574863595261530    7.1243645311079851
   C    Co   H    N    O 
    80     4    32    24    16
Direct
  0.9062997937274986  0.9678493026681636  0.1218281493744868
  0.9292584331657707  0.9790657413740860  0.4163295065223949
  0.9058564813409617  0.8122867324317866  0.9311291909008688
  0.5936659866140559  0.4677868315792253  0.6217512316558711
  0.5712917867317557  0.3007984874615488  0.1368377737653788
  0.0710877046988259  0.8007203075567162  0.1362878718845622
  0.5707803458172691  0.4790499944474860  0.9163042143281501
  0.5941436256823991  0.3123460327505043  0.4311292523017727
  0.4290723249744701  0.4789915165190806  0.4162162233712863
  0.0940278849676162  0.8120624115821329  0.4306868573739919
  0.0708240177025914  0.9790189741858839  0.9161285177243101
  0.4286799126457836  0.3008014773773908  0.6366502278733179
  0.9286979616468258  0.8007353388113927  0.6368213286162003
  0.0937745729950095  0.9676487054173819  0.6217429625457527
  0.4057839993465677  0.3123203502020786  0.9309276408538025
  0.4061413443596962  0.4675720470375921  0.1218674221422802
  0.8213792020255184  0.0383300545061473  0.4389602001981459
  0.8454157230128416  0.0767092856974969  0.1048169772119323
  0.8444714086360818  0.7037085256063804  0.9486948458452247
  0.6546811668281904  0.5765898673704157  0.6045676709964880
  0.6555310899558222  0.2037874128391124  0.4485950125423770
  0.1792841557093041  0.7418953869265295  0.1135781209089117
  0.6786372938583582  0.5382554502454724  0.9388546571460736
  0.6797005941985717  0.2423283328128463  0.1145761907409550
  0.3209772604492116  0.5379591973785125  0.4383245355795253
  0.1551310984688925  0.7033826942882300  0.4475952498181570
  0.1547055037575191  0.0765345207208128  0.6043777876245358
  0.3444849206339455  0.2037586135338927  0.9482103874062275
  0.8202999779309650  0.7422565100791161  0.6147110745560767
  0.1787380733665032  0.0381960102170495  0.9385957388338753
  0.3202725917646774  0.2423089760951740  0.6142239420292981
  0.3452049185315573  0.5764390890798836  0.1044046394800873
  0.7790272970095984  0.0810145257023365  0.4376118155460063
  0.8029828944697073  0.1189767510279154  0.1114106922896312
  0.8018749363146895  0.6616081799764544  0.9422837598723817
  0.6970728331173461  0.6188842067133891  0.6113164674780123
  0.6981360731781407  0.1616917672239566  0.4422436596482626
  0.2217376475241224  0.6992920293640665  0.1150606490456809
  0.7209930043600039  0.5809296487075031  0.9375720615748122
  0.7221491669634972  0.1997316087415157  0.1160432065373556
  0.2785290338548592  0.5805507125280229  0.4366552212085111
  0.1976247939089220  0.6611951396238567  0.4410622867013529
  0.1970910158436112  0.1188460944805243  0.6110667286815215
  0.3019354644181789  0.1616143940029033  0.9418029304854585
  0.7778620292309384  0.6996596515817117  0.6161260053571667
  0.2210961766465260  0.0808819498238620  0.9372075217090980
  0.2778517381007717  0.1996829331777050  0.6156984567796968
  0.3026743901852100  0.6186197879305340  0.1107064400470463
  0.7469701134634121  0.0827260127117952  0.5973928088991443
  0.7945193174758174  0.1579161160266054  0.9542044300444843
  0.7933375960934654  0.6227056941064220  0.0995462379660452
  0.7055234695317552  0.6578449634477295  0.4541593703041329
  0.7066607886335134  0.1227835539102742  0.5995193895947679
  0.2539060811199505  0.6976195703776114  0.9554863628475658
  0.7530328830446678  0.5826472182705729  0.0973883016735542
  0.7542632841192827  0.1980249055724244  0.9563596996786998
  0.2463584921876958  0.5821804284625287  0.5962049195278993
  0.2060472278611556  0.6222310600288736  0.5982451889501874
  0.2055023862536416  0.1578200311245226  0.4539209804176494
  0.2934525701927484  0.1226810782237777  0.0990245903458700
  0.7457534020468586  0.6979729121154250  0.4564260740540576
  0.2531698639400162  0.0825993431358256  0.0969336021751204
  0.2457121594518981  0.1979756415492560  0.4560891946474328
  0.2942248756152637  0.6575628944858707  0.9534891355812434
  0.8934391091600702  0.9979490480754905  0.2690345685512199
  0.8927616331286075  0.7821991146937179  0.7841462565974808
  0.6065812330532623  0.4978931873427115  0.7688921108905049
  0.6072527107243815  0.2822860182977465  0.2840830363106193
  0.1070235778976283  0.7820387304735235  0.2834194593157946
  0.3932147155785159  0.4977176513834323  0.2688720896372132
  0.1066716169676099  0.9977930716547476  0.7687916045508203
  0.3927026939680616  0.2822744856105501  0.7838178760224963
  0.7709573558821745  0.1199908251964814  0.2756647546702879
  0.7698284479687345  0.6606578386567890  0.7780294960944900
  0.7290808677425744  0.6198959340597696  0.7756134526911822
  0.7301959523659676  0.1607472964675907  0.2780012386298694
  0.2297400054050769  0.6602774944431786  0.2769425647361814
  0.2705399873750522  0.6195574885649009  0.2747474753004724
  0.2291246789269294  0.1198764895005411  0.7752883290397605
  0.2698605107704779  0.1606630862483627  0.7776008255457469
  0.9920868688845275  0.8897739590523557  0.0264190894902185
  0.0078738572956993  0.8896766005190955  0.5264577572147218
  0.5078278892073200  0.3897464799611541  0.5265947287933344
  0.4921135725303145  0.3897195629487342  0.0265891988923457
  0.3186382184869103  0.1241498268707346  0.2239463173017242
  0.7459107870274053  0.5523562138266342  0.2207273014090561
  0.7472063493628696  0.2283144665946395  0.8329644722538703
  0.7540769108572363  0.0524168728630059  0.7206923389526096
  0.7527988357117721  0.7282931459895607  0.3331004563866813
  0.6804044321927805  0.6563024101224286  0.3291202132266875
  0.1808361653300139  0.6236899156287450  0.7231190280596849
  0.1803478214125747  0.1562773079494164  0.3289702383456259
  0.8184993564569538  0.6241847932165072  0.2245198548850524
  0.2527190521468370  0.2283086329137660  0.3327802080705240
  0.2534215794445558  0.5518593427514986  0.7194968563356312
  0.2468548155519557  0.7279108154450640  0.8320906299583797
  0.3194534100024953  0.6560828213934471  0.8286686439131401
  0.6814738160628835  0.1242479050140517  0.7244539864073971
  0.8196501993847605  0.1563710381583192  0.8291842202985293
  0.2460890688361701  0.0522922072923748  0.2202556856602698
  0.5671720197030652  0.4906776649430498  0.0569578439095508
  0.4322321620924612  0.2890755841843813  0.4961197430058704
  0.3891554361451952  0.4697228334954886  0.9806391354368245
  0.1110239240467195  0.8099136050728788  0.5718806998949120
  0.0671871270516036  0.9906831520959969  0.0567181117516569
  0.3887790394756152  0.3102729589776487  0.0720805699970413
  0.8893231270100443  0.9700882644202338  0.9805477620708345
  0.9322311221686803  0.7889821258284329  0.4963140076764532
  0.1107567496673383  0.9698231941928270  0.4805009478559512
  0.6106193799142332  0.4700007988877388  0.4804484332573367
  0.5677692154807019  0.2890502084336006  0.9963288924925067
  0.9329193556610349  0.9906718962125112  0.5569784728701492
  0.6111208803437762  0.3102960786277436  0.5723227595565845
  0.4327052492143508  0.4906888036789354  0.5567644567334469
  0.0674981443500471  0.7890553276775378  0.9956841418035083
  0.8889072979614312  0.8102453799924376  0.0723584021229442
  0.9470632377013715  0.9330812475830115  0.1790628977190707
  0.9613044555037504  0.9401511527126516  0.3603607739256418
  0.9468795789980859  0.8467084315628455  0.8738073299387494
  0.5528849475187485  0.4330529647113153  0.6791148699541978
  0.5389145914557574  0.3394818402007331  0.1927003530026639
  0.0388248343380297  0.8394498408188582  0.1924290728951377
  0.5386902378300320  0.4401515052972655  0.8604424123607473
  0.5530901851275942  0.3467414621461913  0.3739080134133488
  0.4612085497260949  0.4401157556476392  0.3604132152070889
  0.0530536141681210  0.8465849484466048  0.3736957717997527
  0.0387252222912906  0.9401234724138305  0.8602952308977265
  0.4610430605241120  0.3394829666178012  0.6925987769322077
  0.9610519232461172  0.8394502988985053  0.6925966095887333
  0.0529543930609364  0.9329604632491737  0.6790690573678972
  0.4468429725305327  0.3467223095144689  0.8738060731627115
  0.4469876675758258  0.4329254683457577  0.1792139893458966
  0.8526098247323475  0.0385987487404904  0.2707905594292583
  0.8516990729627736  0.7417759392749588  0.7826447260493268
  0.6474340695965708  0.5385203276021358  0.7706066386787640
  0.6483249870030008  0.2418740067096081  0.2825606862338148
  0.1479731513488289  0.7415141319301526  0.2816624389528783
  0.3523038588287122  0.5382931746817334  0.2703577452665158
  0.1475293364738874  0.0384244848549145  0.7703838150273228
  0.3516576750343532  0.2418477844463851  0.7821881904897268
  0.8293196389059432  0.0042126495679184  0.5780235221944494
  0.8730847859031954  0.0743882340656299  0.9626941493698595
  0.8722854503203266  0.7059079998346292  0.0905738520197517
  0.6270967300109689  0.5742207153187309  0.4622958794992158
  0.6277031122078682  0.2059839119153182  0.5904406791999648
  0.1713006796759160  0.7760145970020105  0.9745811367123025
  0.6706640487118349  0.5041476871968769  0.0779117166282646
  0.6717427551659299  0.2764821853001109  0.9756403938363860
  0.3289208655501170  0.5038803927437456  0.5774990881553705
  0.1273760464824321  0.7056318685876022  0.5895757025478332
  0.1270660014074636  0.0741908426379894  0.4622015919044600
  0.3722980615079052  0.2059921973914598  0.0900706776406182
  0.8282418835782721  0.7764322759523026  0.4758353545611982
  0.1707682950167495  0.0041125489187763  0.0777325632161947
  0.3282016707739004  0.2764874339684980  0.4753374358236755
  0.3730375378757884  0.5741985722577709  0.9625969857915848
 
  0.00000000E+00  0.00000000E+00  0.00000000E+00
  0.00000000E+00  0.00000000E+00  0.00000000E+00
  0.00000000E+00  0.00000000E+00  0.00000000E+00
  0.00000000E+00  0.00000000E+00  0.00000000E+00
  0.00000000E+00  0.00000000E+00  0.00000000E+00
  0.00000000E+00  0.00000000E+00  0.00000000E+00
  0.00000000E+00  0.00000000E+00  0.00000000E+00
  0.00000000E+00  0.00000000E+00  0.00000000E+00
  0.00000000E+00  0.00000000E+00  0.00000000E+00
  0.00000000E+00  0.00000000E+00  0.00000000E+00
  0.00000000E+00  0.00000000E+00  0.00000000E+00
  0.00000000E+00  0.00000000E+00  0.00000000E+00
  0.00000000E+00  0.00000000E+00  0.00000000E+00
  0.00000000E+00  0.00000000E+00  0.00000000E+00
  0.00000000E+00  0.00000000E+00  0.00000000E+00
  0.00000000E+00  0.00000000E+00  0.00000000E+00
  0.00000000E+00  0.00000000E+00  0.00000000E+00
  0.00000000E+00  0.00000000E+00  0.00000000E+00
  0.00000000E+00  0.00000000E+00  0.00000000E+00
  0.00000000E+00  0.00000000E+00  0.00000000E+00
  0.00000000E+00  0.00000000E+00  0.00000000E+00
  0.00000000E+00  0.00000000E+00  0.00000000E+00
  0.00000000E+00  0.00000000E+00  0.00000000E+00
  0.00000000E+00  0.00000000E+00  0.00000000E+00
  0.00000000E+00  0.00000000E+00  0.00000000E+00
  0.00000000E+00  0.00000000E+00  0.00000000E+00
  0.00000000E+00  0.00000000E+00  0.00000000E+00
  0.00000000E+00  0.00000000E+00  0.00000000E+00
  0.00000000E+00  0.00000000E+00  0.00000000E+00
  0.00000000E+00  0.00000000E+00  0.00000000E+00
  0.00000000E+00  0.00000000E+00  0.00000000E+00
  0.00000000E+00  0.00000000E+00  0.00000000E+00
  0.00000000E+00  0.00000000E+00  0.00000000E+00
  0.00000000E+00  0.00000000E+00  0.00000000E+00
  0.00000000E+00  0.00000000E+00  0.00000000E+00
  0.00000000E+00  0.00000000E+00  0.00000000E+00
  0.00000000E+00  0.00000000E+00  0.00000000E+00
  0.00000000E+00  0.00000000E+00  0.00000000E+00
  0.00000000E+00  0.00000000E+00  0.00000000E+00
  0.00000000E+00  0.00000000E+00  0.00000000E+00
  0.00000000E+00  0.00000000E+00  0.00000000E+00
  0.00000000E+00  0.00000000E+00  0.00000000E+00
  0.00000000E+00  0.00000000E+00  0.00000000E+00
  0.00000000E+00  0.00000000E+00  0.00000000E+00
  0.00000000E+00  0.00000000E+00  0.00000000E+00
  0.00000000E+00  0.00000000E+00  0.00000000E+00
  0.00000000E+00  0.00000000E+00  0.00000000E+00
  0.00000000E+00  0.00000000E+00  0.00000000E+00
  0.00000000E+00  0.00000000E+00  0.00000000E+00
  0.00000000E+00  0.00000000E+00  0.00000000E+00
  0.00000000E+00  0.00000000E+00  0.00000000E+00
  0.00000000E+00  0.00000000E+00  0.00000000E+00
  0.00000000E+00  0.00000000E+00  0.00000000E+00
  0.00000000E+00  0.00000000E+00  0.00000000E+00
  0.00000000E+00  0.00000000E+00  0.00000000E+00
  0.00000000E+00  0.00000000E+00  0.00000000E+00
  0.00000000E+00  0.00000000E+00  0.00000000E+00
  0.00000000E+00  0.00000000E+00  0.00000000E+00
  0.00000000E+00  0.00000000E+00  0.00000000E+00
  0.00000000E+00  0.00000000E+00  0.00000000E+00
  0.00000000E+00  0.00000000E+00  0.00000000E+00
  0.00000000E+00  0.00000000E+00  0.00000000E+00
  0.00000000E+00  0.00000000E+00  0.00000000E+00
  0.00000000E+00  0.00000000E+00  0.00000000E+00
  0.00000000E+00  0.00000000E+00  0.00000000E+00
  0.00000000E+00  0.00000000E+00  0.00000000E+00
  0.00000000E+00  0.00000000E+00  0.00000000E+00
  0.00000000E+00  0.00000000E+00  0.00000000E+00
  0.00000000E+00  0.00000000E+00  0.00000000E+00
  0.00000000E+00  0.00000000E+00  0.00000000E+00
  0.00000000E+00  0.00000000E+00  0.00000000E+00
  0.00000000E+00  0.00000000E+00  0.00000000E+00
  0.00000000E+00  0.00000000E+00  0.00000000E+00
  0.00000000E+00  0.00000000E+00  0.00000000E+00
  0.00000000E+00  0.00000000E+00  0.00000000E+00
  0.00000000E+00  0.00000000E+00  0.00000000E+00
  0.00000000E+00  0.00000000E+00  0.00000000E+00
  0.00000000E+00  0.00000000E+00  0.00000000E+00
  0.00000000E+00  0.00000000E+00  0.00000000E+00
  0.00000000E+00  0.00000000E+00  0.00000000E+00
  0.00000000E+00  0.00000000E+00  0.00000000E+00
  0.00000000E+00  0.00000000E+00  0.00000000E+00
  0.00000000E+00  0.00000000E+00  0.00000000E+00
  0.00000000E+00  0.00000000E+00  0.00000000E+00
  0.00000000E+00  0.00000000E+00  0.00000000E+00
  0.00000000E+00  0.00000000E+00  0.00000000E+00
  0.00000000E+00  0.00000000E+00  0.00000000E+00
  0.00000000E+00  0.00000000E+00  0.00000000E+00
  0.00000000E+00  0.00000000E+00  0.00000000E+00
  0.00000000E+00  0.00000000E+00  0.00000000E+00
  0.00000000E+00  0.00000000E+00  0.00000000E+00
  0.00000000E+00  0.00000000E+00  0.00000000E+00
  0.00000000E+00  0.00000000E+00  0.00000000E+00
  0.00000000E+00  0.00000000E+00  0.00000000E+00
  0.00000000E+00  0.00000000E+00  0.00000000E+00
  0.00000000E+00  0.00000000E+00  0.00000000E+00
  0.00000000E+00  0.00000000E+00  0.00000000E+00
  0.00000000E+00  0.00000000E+00  0.00000000E+00
  0.00000000E+00  0.00000000E+00  0.00000000E+00
  0.00000000E+00  0.00000000E+00  0.00000000E+00
  0.00000000E+00  0.00000000E+00  0.00000000E+00
  0.00000000E+00  0.00000000E+00  0.00000000E+00
  0.00000000E+00  0.00000000E+00  0.00000000E+00
  0.00000000E+00  0.00000000E+00  0.00000000E+00
  0.00000000E+00  0.00000000E+00  0.00000000E+00
  0.00000000E+00  0.00000000E+00  0.00000000E+00
  0.00000000E+00  0.00000000E+00  0.00000000E+00
  0.00000000E+00  0.00000000E+00  0.00000000E+00
  0.00000000E+00  0.00000000E+00  0.00000000E+00
  0.00000000E+00  0.00000000E+00  0.00000000E+00
  0.00000000E+00  0.00000000E+00  0.00000000E+00
  0.00000000E+00  0.00000000E+00  0.00000000E+00
  0.00000000E+00  0.00000000E+00  0.00000000E+00
  0.00000000E+00  0.00000000E+00  0.00000000E+00
  0.00000000E+00  0.00000000E+00  0.00000000E+00
  0.00000000E+00  0.00000000E+00  0.00000000E+00
  0.00000000E+00  0.00000000E+00  0.00000000E+00
  0.00000000E+00  0.00000000E+00  0.00000000E+00
  0.00000000E+00  0.00000000E+00  0.00000000E+00
  0.00000000E+00  0.00000000E+00  0.00000000E+00
  0.00000000E+00  0.00000000E+00  0.00000000E+00
  0.00000000E+00  0.00000000E+00  0.00000000E+00
  0.00000000E+00  0.00000000E+00  0.00000000E+00
  0.00000000E+00  0.00000000E+00  0.00000000E+00
  0.00000000E+00  0.00000000E+00  0.00000000E+00
  0.00000000E+00  0.00000000E+00  0.00000000E+00
  0.00000000E+00  0.00000000E+00  0.00000000E+00
  0.00000000E+00  0.00000000E+00  0.00000000E+00
  0.00000000E+00  0.00000000E+00  0.00000000E+00
  0.00000000E+00  0.00000000E+00  0.00000000E+00
  0.00000000E+00  0.00000000E+00  0.00000000E+00
  0.00000000E+00  0.00000000E+00  0.00000000E+00
  0.00000000E+00  0.00000000E+00  0.00000000E+00
  0.00000000E+00  0.00000000E+00  0.00000000E+00
  0.00000000E+00  0.00000000E+00  0.00000000E+00
  0.00000000E+00  0.00000000E+00  0.00000000E+00
  0.00000000E+00  0.00000000E+00  0.00000000E+00
  0.00000000E+00  0.00000000E+00  0.00000000E+00
  0.00000000E+00  0.00000000E+00  0.00000000E+00
  0.00000000E+00  0.00000000E+00  0.00000000E+00
  0.00000000E+00  0.00000000E+00  0.00000000E+00
  0.00000000E+00  0.00000000E+00  0.00000000E+00
  0.00000000E+00  0.00000000E+00  0.00000000E+00
  0.00000000E+00  0.00000000E+00  0.00000000E+00
  0.00000000E+00  0.00000000E+00  0.00000000E+00
  0.00000000E+00  0.00000000E+00  0.00000000E+00
  0.00000000E+00  0.00000000E+00  0.00000000E+00
  0.00000000E+00  0.00000000E+00  0.00000000E+00
  0.00000000E+00  0.00000000E+00  0.00000000E+00
  0.00000000E+00  0.00000000E+00  0.00000000E+00
  0.00000000E+00  0.00000000E+00  0.00000000E+00
  0.00000000E+00  0.00000000E+00  0.00000000E+00
  0.00000000E+00  0.00000000E+00  0.00000000E+00
  0.00000000E+00  0.00000000E+00  0.00000000E+00
  0.00000000E+00  0.00000000E+00  0.00000000E+00
  0.00000000E+00  0.00000000E+00  0.00000000E+00
