 C Fe  H  N  O                          
   1.00000000000000     
    15.8107422541425429   -0.0032443160207019    0.0224562142620931
    -0.0046156094382299   31.5165832334414553    1.7332217716129912
     0.0051096138821343    0.3737571053782336    5.4348607847408381
   C    Fe   H    N    O 
    80     4    32    24    16
Direct
  0.8532005207094571  0.9658033922596587  0.1032918410182617
  0.9261466984624747  0.9765540867729072  0.4418150062862409
  0.8490037749901802  0.8173936976210072  0.8981191520260765
  0.6453969128637951  0.4647539639106810  0.6110952417409976
  0.5770201353663893  0.3056297285633107  0.0682688541993812
  0.0725373889163592  0.8045917383705898  0.0589879816799055
  0.5728799592428615  0.4760476629624861  0.9504174003356383
  0.6494205306889640  0.3178959347531602  0.4050472908782439
  0.4219933627602899  0.4752914767312149  0.4513988546768957
  0.1452537948054768  0.8160867087586539  0.3966369027232659
  0.0775880713232269  0.9750360936642792  0.9409012537624903
  0.4261794291898156  0.3042333529613614  0.5698222875800028
  0.9213324660453566  0.8056103942660897  0.5594353795795612
  0.1499824151143443  0.9627320300239433  0.6032396928193293
  0.3532729457612049  0.3150128785176278  0.9093555817689705
  0.3498037643168388  0.4636331210301208  0.1131545087414239
  0.7760780284740179  0.0443997046576783  0.4510265422982798
  0.8630529211472791  0.0686622685767233  0.0722723196667303
  0.8564369573618080  0.7145750678703493  0.9345119626590943
  0.6367223115252543  0.5675205735521160  0.5746912098140697
  0.6435952928209971  0.2150402307743278  0.4422322789716091
  0.2240223236833714  0.7370443738153725  0.0553427216535738
  0.7237941322408190  0.5437714713070392  0.9527358800791745
  0.7302224245870264  0.2392833951973685  0.0626547979025105
  0.2706408626391124  0.5426569742889029  0.4554098021968684
  0.1371072093788968  0.7133722153372872  0.4350929806404622
  0.1447162409960612  0.0656415386630655  0.5672741714732155
  0.3630911950724993  0.2120359898067576  0.9399151546513664
  0.7695601483682992  0.7383861475867235  0.5562042994851382
  0.2312025489176222  0.0412350989295760  0.9455491763383819
  0.2762023596367058  0.2364374683499761  0.5624687038568936
  0.3577833367951300  0.5664231822061652  0.0762497008000835
  0.7421958240225734  0.0881918725388999  0.4432407730554644
  0.8297786702366992  0.1123793623445408  0.0769932553246946
  0.8228915723244015  0.6708543432215421  0.9325339204695950
  0.6703866242899608  0.6112588897599807  0.5761358700257944
  0.6775800515416535  0.1714343677808969  0.4390642573601724
  0.2587213402096822  0.6933344935113013  0.0674195028415738
  0.7581625200462412  0.5875414887092845  0.9414082876842613
  0.7650167726166686  0.1956223287933767  0.0724655212243022
  0.2361913745708932  0.5864048068059731  0.4441444657373239
  0.1710027103089828  0.6696838665332123  0.4341210300365006
  0.1784386656400159  0.1092820305651259  0.5714990454364610
  0.3300477982649781  0.1682793524637773  0.9342077915051732
  0.7352135020131882  0.6946066056151707  0.5671302959643185
  0.2657947491810830  0.0849436844533855  0.9366647407068953
  0.2425487616984725  0.1926035215234805  0.5693237986822908
  0.3240027984149449  0.6101063123777806  0.0776124314301114
  0.6827578750645600  0.0972265946112856  0.6186648768923320
  0.8570368629588074  0.1452152157403148  0.9001812221890546
  0.8502116423217956  0.6382271402340436  0.1101226666802617
  0.6432463985484063  0.6438804402384264  0.3982165716286090
  0.6505637462942317  0.1386425661804651  0.6165142247153099
  0.3186385987589375  0.6840827881089453  0.8938425708501399
  0.8179522235341423  0.5967792665086193  0.1146213845481867
  0.8247376545764311  0.1866143665203168  0.8977687434150710
  0.1763938970876850  0.5956925281040242  0.6179787212545946
  0.1439360061252586  0.6371143975017191  0.6129264084755519
  0.1512921205872146  0.1421650892600184  0.3953421767836645
  0.3573639420042340  0.1353504342970808  0.1098472016061720
  0.6755773317977116  0.6853266321994838  0.3935844315273798
  0.3253397255672539  0.0939021659865986  0.1112233024946860
  0.1832289712991582  0.1836172117261228  0.3942133077764396
  0.3512111512418201  0.6426877026745217  0.8991104080653685
  0.8683091625294566  0.9955677540856840  0.2684494692684467
  0.8628662141919747  0.7872988209919711  0.7340225184595468
  0.6308257571060878  0.4947349972583339  0.7753432350092737
  0.6359955004361311  0.2876993332513536  0.2415408900632059
  0.1306993984851488  0.7860344109988944  0.2329675418025872
  0.3638464204768113  0.4937058930926668  0.2770910560629574
  0.1367657638311144  0.9929152467042286  0.7671431048889943
  0.3684434617586518  0.2852026699040024  0.7443396114610579
  0.7700908571098211  0.1208390056804163  0.2591715752963708
  0.7630657499388320  0.6621712445520487  0.7520224317503121
  0.7302249498758684  0.6199717543668655  0.7565853603191783
  0.7372893481671738  0.1629950433136784  0.2569016852837791
  0.2309448254340154  0.6609567312857791  0.2532529088322164
  0.2640205977969785  0.6187954633049557  0.2584538738066016
  0.2379972900412142  0.1176717156254128  0.7534099298066650
  0.2705381956471911  0.1598678927113610  0.7521958863651435
  0.9700276538229460  0.8906935035585732  0.9997873154666976
  0.0272175850000664  0.8903407241209109  0.4997194943467704
  0.5272772952805767  0.3904496112064137  0.5096736800951760
  0.4701023649526022  0.3901171576393025  0.0105503086168355
  0.4033628528143254  0.1427800803119297  0.2470580132426150
  0.8384750747271710  0.5710492145365009  0.2536386594677111
  0.8451192784172932  0.2124773777352686  0.7590687467841519
  0.6623059605339279  0.0713545680997925  0.7572335840867908
  0.6551734793183641  0.7110225519538176  0.2541933786014852
  0.5970930719990974  0.6362218361420986  0.2620088663858553
  0.0976622687023863  0.6447835831330906  0.7493599140101637
  0.1052986813194821  0.1347251343954525  0.2581287887313479
  0.8964442536186539  0.6459005441134025  0.2460539250618794
  0.1626745891244710  0.2095601488977437  0.2565647349655649
  0.1559610493906689  0.5700233745465937  0.7578849319724199
  0.3390364435956243  0.7097541531501435  0.7539127783529977
  0.3975683791509326  0.6350089962450838  0.7629283673615106
  0.6044680038262271  0.1461318633061381  0.7539080744571791
  0.9032020322388377  0.1377587514208045  0.7629423749766389
  0.3458329553740569  0.0679788962232877  0.2490759376342595
  0.5447723893361101  0.4890731589663773  0.1068881571400411
  0.4546338761811910  0.2914369796601264  0.4131299929778010
  0.3105112979936919  0.4659514215522975  0.9486287761398913
  0.1846735599859244  0.8136878548158322  0.5608773758452159
  0.0499911800270141  0.9884531193054400  0.0967873879688526
  0.3138752821683255  0.3122595232664267  0.0743056019996757
  0.8137271791251948  0.9685713135340066  0.9390349030261049
  0.9491816758688785  0.7923911027102974  0.4032573993439357
  0.1896316139266290  0.9646709723038498  0.4389956644823982
  0.6846946000263472  0.4672563262439198  0.4460417846529268
  0.5493354806964987  0.2922119580425075  0.9128188749184929
  0.9545716956838035  0.9893129057270968  0.5983235319222970
  0.6890085844205416  0.3159127216202151  0.5688244690802335
  0.4498314907804968  0.4884754872412813  0.6073585153510592
  0.0443765878932894  0.7914892407698915  0.9031753554129480
  0.8095935986961038  0.8151366831997962  0.0629255247193186
  0.8996135450459022  0.9306314901543971  0.1759140591170834
  0.9443493480803937  0.9373096195770785  0.3834813997045714
  0.8967174935041697  0.8520959140148605  0.8237889226592472
  0.5985880589609565  0.4297629460321772  0.6857866350433923
  0.5566008128908919  0.3447033623710780  0.1251347367678690
  0.0536575761307461  0.8438688177883762  0.1156951409503506
  0.5540747249796496  0.4367751744504318  0.8936999747321437
  0.6010345396396701  0.3523214583795138  0.3315351081594287
  0.4414260095950482  0.4360876011592154  0.3946563259474090
  0.0982900804583977  0.8509915368697207  0.3226246586281221
  0.0568275516639574  0.9360199710923069  0.8839465761288920
  0.4442646781464816  0.3435338395357377  0.6273460969330102
  0.9410853708895957  0.8447746188833776  0.6160752265771805
  0.1012393261889315  0.9283866852037619  0.6769594160367021
  0.3995403399643394  0.3502360631553501  0.8354809206762184
  0.3971383645725268  0.4288427377898785  0.1872395079220865
  0.8339514658552645  0.0373164566123876  0.2620324341964917
  0.8275761946304527  0.7456855110101088  0.7436714621908536
  0.6655817278065257  0.5364549221416723  0.7658253523694825
  0.6720048483584193  0.2462738905069983  0.2509084161306134
  0.1656741221755311  0.7443656857826682  0.2426341241132377
  0.3287658024504552  0.5353421075272138  0.2675598979362235
  0.1730016227529632  0.0343183636404945  0.7578298895204654
  0.3340525276616901  0.2434472462554425  0.7509521063347648
  0.7552465263281078  0.0151934516723315  0.6104778390092918
  0.9130785252582712  0.0594580484628153  0.9138947876453969
  0.9066251636757698  0.7239497351906437  0.0914151521649487
  0.5864860348267342  0.5581074305182838  0.4180151582448488
  0.5933140990950463  0.2241986997606347  0.6000755680130609
  0.2444554601380133  0.7659429637461912  0.8935282370407194
  0.7443587883008647  0.5148038783975650  0.1136078671649230
  0.7503595403321768  0.2683967028776095  0.9018083484938799
  0.2501760622026623  0.5137225533842198  0.6169810737146904
  0.0869070157634724  0.7228083517580686  0.5924294979090234
  0.0947242525165777  0.0565254278971707  0.4092039218766104
  0.4128762156667278  0.2211972868623775  0.0984179390787574
  0.7491231171159214  0.7673636320757140  0.3952719696246234
  0.2513853158068571  0.0120332404198891  0.1054479863785502
  0.2552653389264989  0.2657316632275410  0.4040881064033286
  0.4081860852647736  0.5570342211572665  0.9193204697390271
 
  0.00000000E+00  0.00000000E+00  0.00000000E+00
  0.00000000E+00  0.00000000E+00  0.00000000E+00
  0.00000000E+00  0.00000000E+00  0.00000000E+00
  0.00000000E+00  0.00000000E+00  0.00000000E+00
  0.00000000E+00  0.00000000E+00  0.00000000E+00
  0.00000000E+00  0.00000000E+00  0.00000000E+00
  0.00000000E+00  0.00000000E+00  0.00000000E+00
  0.00000000E+00  0.00000000E+00  0.00000000E+00
  0.00000000E+00  0.00000000E+00  0.00000000E+00
  0.00000000E+00  0.00000000E+00  0.00000000E+00
  0.00000000E+00  0.00000000E+00  0.00000000E+00
  0.00000000E+00  0.00000000E+00  0.00000000E+00
  0.00000000E+00  0.00000000E+00  0.00000000E+00
  0.00000000E+00  0.00000000E+00  0.00000000E+00
  0.00000000E+00  0.00000000E+00  0.00000000E+00
  0.00000000E+00  0.00000000E+00  0.00000000E+00
  0.00000000E+00  0.00000000E+00  0.00000000E+00
  0.00000000E+00  0.00000000E+00  0.00000000E+00
  0.00000000E+00  0.00000000E+00  0.00000000E+00
  0.00000000E+00  0.00000000E+00  0.00000000E+00
  0.00000000E+00  0.00000000E+00  0.00000000E+00
  0.00000000E+00  0.00000000E+00  0.00000000E+00
  0.00000000E+00  0.00000000E+00  0.00000000E+00
  0.00000000E+00  0.00000000E+00  0.00000000E+00
  0.00000000E+00  0.00000000E+00  0.00000000E+00
  0.00000000E+00  0.00000000E+00  0.00000000E+00
  0.00000000E+00  0.00000000E+00  0.00000000E+00
  0.00000000E+00  0.00000000E+00  0.00000000E+00
  0.00000000E+00  0.00000000E+00  0.00000000E+00
  0.00000000E+00  0.00000000E+00  0.00000000E+00
  0.00000000E+00  0.00000000E+00  0.00000000E+00
  0.00000000E+00  0.00000000E+00  0.00000000E+00
  0.00000000E+00  0.00000000E+00  0.00000000E+00
  0.00000000E+00  0.00000000E+00  0.00000000E+00
  0.00000000E+00  0.00000000E+00  0.00000000E+00
  0.00000000E+00  0.00000000E+00  0.00000000E+00
  0.00000000E+00  0.00000000E+00  0.00000000E+00
  0.00000000E+00  0.00000000E+00  0.00000000E+00
  0.00000000E+00  0.00000000E+00  0.00000000E+00
  0.00000000E+00  0.00000000E+00  0.00000000E+00
  0.00000000E+00  0.00000000E+00  0.00000000E+00
  0.00000000E+00  0.00000000E+00  0.00000000E+00
  0.00000000E+00  0.00000000E+00  0.00000000E+00
  0.00000000E+00  0.00000000E+00  0.00000000E+00
  0.00000000E+00  0.00000000E+00  0.00000000E+00
  0.00000000E+00  0.00000000E+00  0.00000000E+00
  0.00000000E+00  0.00000000E+00  0.00000000E+00
  0.00000000E+00  0.00000000E+00  0.00000000E+00
  0.00000000E+00  0.00000000E+00  0.00000000E+00
  0.00000000E+00  0.00000000E+00  0.00000000E+00
  0.00000000E+00  0.00000000E+00  0.00000000E+00
  0.00000000E+00  0.00000000E+00  0.00000000E+00
  0.00000000E+00  0.00000000E+00  0.00000000E+00
  0.00000000E+00  0.00000000E+00  0.00000000E+00
  0.00000000E+00  0.00000000E+00  0.00000000E+00
  0.00000000E+00  0.00000000E+00  0.00000000E+00
  0.00000000E+00  0.00000000E+00  0.00000000E+00
  0.00000000E+00  0.00000000E+00  0.00000000E+00
  0.00000000E+00  0.00000000E+00  0.00000000E+00
  0.00000000E+00  0.00000000E+00  0.00000000E+00
  0.00000000E+00  0.00000000E+00  0.00000000E+00
  0.00000000E+00  0.00000000E+00  0.00000000E+00
  0.00000000E+00  0.00000000E+00  0.00000000E+00
  0.00000000E+00  0.00000000E+00  0.00000000E+00
  0.00000000E+00  0.00000000E+00  0.00000000E+00
  0.00000000E+00  0.00000000E+00  0.00000000E+00
  0.00000000E+00  0.00000000E+00  0.00000000E+00
  0.00000000E+00  0.00000000E+00  0.00000000E+00
  0.00000000E+00  0.00000000E+00  0.00000000E+00
  0.00000000E+00  0.00000000E+00  0.00000000E+00
  0.00000000E+00  0.00000000E+00  0.00000000E+00
  0.00000000E+00  0.00000000E+00  0.00000000E+00
  0.00000000E+00  0.00000000E+00  0.00000000E+00
  0.00000000E+00  0.00000000E+00  0.00000000E+00
  0.00000000E+00  0.00000000E+00  0.00000000E+00
  0.00000000E+00  0.00000000E+00  0.00000000E+00
  0.00000000E+00  0.00000000E+00  0.00000000E+00
  0.00000000E+00  0.00000000E+00  0.00000000E+00
  0.00000000E+00  0.00000000E+00  0.00000000E+00
  0.00000000E+00  0.00000000E+00  0.00000000E+00
  0.00000000E+00  0.00000000E+00  0.00000000E+00
  0.00000000E+00  0.00000000E+00  0.00000000E+00
  0.00000000E+00  0.00000000E+00  0.00000000E+00
  0.00000000E+00  0.00000000E+00  0.00000000E+00
  0.00000000E+00  0.00000000E+00  0.00000000E+00
  0.00000000E+00  0.00000000E+00  0.00000000E+00
  0.00000000E+00  0.00000000E+00  0.00000000E+00
  0.00000000E+00  0.00000000E+00  0.00000000E+00
  0.00000000E+00  0.00000000E+00  0.00000000E+00
  0.00000000E+00  0.00000000E+00  0.00000000E+00
  0.00000000E+00  0.00000000E+00  0.00000000E+00
  0.00000000E+00  0.00000000E+00  0.00000000E+00
  0.00000000E+00  0.00000000E+00  0.00000000E+00
  0.00000000E+00  0.00000000E+00  0.00000000E+00
  0.00000000E+00  0.00000000E+00  0.00000000E+00
  0.00000000E+00  0.00000000E+00  0.00000000E+00
  0.00000000E+00  0.00000000E+00  0.00000000E+00
  0.00000000E+00  0.00000000E+00  0.00000000E+00
  0.00000000E+00  0.00000000E+00  0.00000000E+00
  0.00000000E+00  0.00000000E+00  0.00000000E+00
  0.00000000E+00  0.00000000E+00  0.00000000E+00
  0.00000000E+00  0.00000000E+00  0.00000000E+00
  0.00000000E+00  0.00000000E+00  0.00000000E+00
  0.00000000E+00  0.00000000E+00  0.00000000E+00
  0.00000000E+00  0.00000000E+00  0.00000000E+00
  0.00000000E+00  0.00000000E+00  0.00000000E+00
  0.00000000E+00  0.00000000E+00  0.00000000E+00
  0.00000000E+00  0.00000000E+00  0.00000000E+00
  0.00000000E+00  0.00000000E+00  0.00000000E+00
  0.00000000E+00  0.00000000E+00  0.00000000E+00
  0.00000000E+00  0.00000000E+00  0.00000000E+00
  0.00000000E+00  0.00000000E+00  0.00000000E+00
  0.00000000E+00  0.00000000E+00  0.00000000E+00
  0.00000000E+00  0.00000000E+00  0.00000000E+00
  0.00000000E+00  0.00000000E+00  0.00000000E+00
  0.00000000E+00  0.00000000E+00  0.00000000E+00
  0.00000000E+00  0.00000000E+00  0.00000000E+00
  0.00000000E+00  0.00000000E+00  0.00000000E+00
  0.00000000E+00  0.00000000E+00  0.00000000E+00
  0.00000000E+00  0.00000000E+00  0.00000000E+00
  0.00000000E+00  0.00000000E+00  0.00000000E+00
  0.00000000E+00  0.00000000E+00  0.00000000E+00
  0.00000000E+00  0.00000000E+00  0.00000000E+00
  0.00000000E+00  0.00000000E+00  0.00000000E+00
  0.00000000E+00  0.00000000E+00  0.00000000E+00
  0.00000000E+00  0.00000000E+00  0.00000000E+00
  0.00000000E+00  0.00000000E+00  0.00000000E+00
  0.00000000E+00  0.00000000E+00  0.00000000E+00
  0.00000000E+00  0.00000000E+00  0.00000000E+00
  0.00000000E+00  0.00000000E+00  0.00000000E+00
  0.00000000E+00  0.00000000E+00  0.00000000E+00
  0.00000000E+00  0.00000000E+00  0.00000000E+00
  0.00000000E+00  0.00000000E+00  0.00000000E+00
  0.00000000E+00  0.00000000E+00  0.00000000E+00
  0.00000000E+00  0.00000000E+00  0.00000000E+00
  0.00000000E+00  0.00000000E+00  0.00000000E+00
  0.00000000E+00  0.00000000E+00  0.00000000E+00
  0.00000000E+00  0.00000000E+00  0.00000000E+00
  0.00000000E+00  0.00000000E+00  0.00000000E+00
  0.00000000E+00  0.00000000E+00  0.00000000E+00
  0.00000000E+00  0.00000000E+00  0.00000000E+00
  0.00000000E+00  0.00000000E+00  0.00000000E+00
  0.00000000E+00  0.00000000E+00  0.00000000E+00
  0.00000000E+00  0.00000000E+00  0.00000000E+00
  0.00000000E+00  0.00000000E+00  0.00000000E+00
  0.00000000E+00  0.00000000E+00  0.00000000E+00
  0.00000000E+00  0.00000000E+00  0.00000000E+00
  0.00000000E+00  0.00000000E+00  0.00000000E+00
  0.00000000E+00  0.00000000E+00  0.00000000E+00
  0.00000000E+00  0.00000000E+00  0.00000000E+00
  0.00000000E+00  0.00000000E+00  0.00000000E+00
  0.00000000E+00  0.00000000E+00  0.00000000E+00
  0.00000000E+00  0.00000000E+00  0.00000000E+00
  0.00000000E+00  0.00000000E+00  0.00000000E+00
  0.00000000E+00  0.00000000E+00  0.00000000E+00
  0.00000000E+00  0.00000000E+00  0.00000000E+00
