FeH_exp1                                
   1.00000000000000     
    24.4247554400661251    0.0012543725921259   -0.0058111386692777
    -0.0010639732771960   25.2849122262296966    3.8241108722956159
    -0.0016503005266631    0.5898401725060540    6.3493588597166086
   C    Fe   H    N    O 
    80     4    32    24    16
Direct
  0.8974882037275691  0.9711707220801600  0.0872605402540572
  0.9323954324386534  0.9834168999841992  0.3955872648203282
  0.8969923541530491  0.8108483285345471  0.9192704698769631
  0.6023248002291837  0.4710952790785541  0.5902450757467150
  0.5685319099070369  0.2977504730559986  0.1159596679919304
  0.0674545855777779  0.7974390680569101  0.1111452439295277
  0.5676544684512024  0.4833712311653784  0.8987824677132181
  0.6029932924447365  0.3104437834572238  0.4243020854580379
  0.4316806498468537  0.4829736586727833  0.3979183891329114
  0.1021373757711146  0.8095557413453420  0.4200117743497032
  0.0684132432104434  0.9830208510282503  0.8952043352856123
  0.4324438727959716  0.2974227428328149  0.6144961902760215
  0.9315363121606453  0.7981082336501046  0.6112813872680292
  0.1030184653732107  0.9704458989433462  0.5870702367874827
  0.3978010255481834  0.3094202919835070  0.9234846708813507
  0.3970551514474607  0.4701990605287989  0.0899882148782112
  0.8200423519031901  0.0358484210855892  0.4395286586118132
  0.8451168535228817  0.0839046100946632  0.0586953607991418
  0.8442226655369254  0.6982044368951037  0.9507460035044062
  0.6545715253489632  0.5838562650038597  0.5595127918180225
  0.6560945157958713  0.1977899933041698  0.4549219891961727
  0.1796321543036399  0.7445003782068369  0.0691494696387736
  0.6799197668634349  0.5362601712770640  0.9407021727135287
  0.6811096613461132  0.2457528299488914  0.0739255566046992
  0.3189643050447799  0.5350939075310492  0.4395876400766667
  0.1544121321269003  0.6967886366343237  0.4502020403247613
  0.1559271699503171  0.0830017200688857  0.5570518201645172
  0.3454106415337463  0.1967207307700249  0.9521141331960266
  0.8188596416082987  0.7458506945999517  0.5696917190086452
  0.1810385924873259  0.0350783689808196  0.9381502965872599
  0.3202741810133745  0.2446827555461866  0.5711759843251798
  0.3442317198167117  0.5828541046000595  0.0586053783810385
  0.7777572105168602  0.0772954610745344  0.4381114036819085
  0.8037777575890743  0.1254687785355486  0.0686182668172535
  0.8026935813098390  0.6567033011251127  0.9422197930226872
  0.6959857842703840  0.6254688772820742  0.5680772348196257
  0.6975583577467646  0.1563118910556298  0.4451666468727211
  0.2220216523067577  0.7030785037157443  0.0716326534966640
  0.7222952407744785  0.5777184966361588  0.9378546093277009
  0.7235309874058586  0.2044142791296792  0.0756329246352010
  0.2764598400589051  0.5764272820613456  0.4367807945550339
  0.1959142488288919  0.6552829576401322  0.4413891507617791
  0.1974735338303759  0.1244334276855739  0.5664748744928829
  0.3039588548099559  0.1552199015580982  0.9424629013172847
  0.7763674544260439  0.7044835292163398  0.5725856163166156
  0.2235163945082022  0.0763870363204902  0.9361615838273494
  0.2779026128160069  0.2032865630853351  0.5728542396408400
  0.3025688821871739  0.6242517706363699  0.0670131388631248
  0.7445395525099130  0.0735084364281917  0.6187876093036024
  0.7966527789026969  0.1690817319823594  0.8915508721819165
  0.7956381629691691  0.6133228584369519  0.1201225070971859
  0.7030183418466081  0.6688917620677231  0.3902425811912096
  0.7047424960899136  0.1127458266654742  0.6223475465886494
  0.2553216236748952  0.7067232484529953  0.8913091216983133
  0.7557052877779924  0.5741185247836285  0.1179553253173680
  0.7567957166662254  0.2082666933483068  0.8950333915495960
  0.2430911739249382  0.5727436131578045  0.6169233304734831
  0.2030966955817561  0.6118917824640988  0.6192431889653633
  0.2046943858398151  0.1679202830154836  0.3890328759982253
  0.2968105644706824  0.1116806279434712  0.1197543215956856
  0.7429231371310010  0.7081262598718610  0.3925242582990265
  0.2568627375155401  0.0725504705111462  0.1166145198998478
  0.2446282928503365  0.2070640927678369  0.3922286585011676
  0.2953225705745268  0.6675886850475479  0.8889780363594539
  0.8911059066524558  0.0012387940047063  0.2426929665960600
  0.8903255241753385  0.7805805305519868  0.7646565176381799
  0.6087591286641754  0.5012738991646870  0.7452842535253552
  0.6097039423643977  0.2801865308597513  0.2696876215831594
  0.1085267422396115  0.7794147992226854  0.2648098945169579
  0.3904399065664421  0.5004972946741049  0.2444874389601210
  0.1096599202901842  0.0006084751624584  0.7420612792746297
  0.3913566818194596  0.2793910073924977  0.7679036973781521
  0.7709558742925537  0.1208867882041886  0.2551246513187735
  0.7696625377516568  0.6610847853886241  0.7562986685520556
  0.7289905297514991  0.6211060757665834  0.7540691783143885
  0.7303648142871353  0.1608486479152518  0.2586679478743363
  0.2288652911477982  0.6597012054215057  0.2553621117325093
  0.2696091120874513  0.6198067087060295  0.2530361786791246
  0.2303627685911138  0.1198837009617293  0.7528901757285098
  0.2710526604268679  0.1597836083551769  0.7560807946207220
  0.9854925964320884  0.8907153667141898  0.0029861851970168
  0.0145519079269434  0.8904526439243767  0.5030122578738201
  0.5144738158125435  0.3904819925506402  0.5068668061225665
  0.4856006436840872  0.3901901946460598  0.0070535839703751
  0.3227167258168464  0.1091655388352777  0.2610109052818501
  0.7497412031874191  0.5403155857253239  0.2571033832678111
  0.7507427533670850  0.2422276232059914  0.7565750594999585
  0.7505497241025765  0.0395353059563490  0.7572528034122996
  0.7488607405325212  0.7419522891849937  0.2534428091212391
  0.6770589392398918  0.6712422002220961  0.2492413079119444
  0.1771768079352043  0.6094998658951596  0.7602781398379008
  0.1788364730103922  0.1704103065130695  0.2476552219798620
  0.8216314796145028  0.6109673193092462  0.2610253046236437
  0.2506942561573453  0.2409499767635168  0.2535089373376209
  0.2491661972553558  0.5389609720869331  0.7560667822065454
  0.2492334752181691  0.7404957484366363  0.7521485678668327
  0.3212219999132486  0.6699774888492485  0.7478840916250888
  0.6789528918351735  0.1102775792946318  0.7637978346943868
  0.8224912741291206  0.1715973608792964  0.7501986196343964
  0.2508084250671985  0.0386465062138086  0.2552933586738035
  0.5581292661509849  0.4959680153439692  0.0454024368029096
  0.4419545244841458  0.2849716994575502  0.4675751664759176
  0.3742413242409981  0.4716463224594207  0.9423032056584262
  0.1249157756595594  0.8077425808937306  0.5680825394007414
  0.0589704733072764  0.9956840272095988  0.0417351465660118
  0.3750122246757996  0.3075740774556621  0.0714537248187739
  0.8745638952600387  0.9728842383484277  0.9396137156486830
  0.9409476011822733  0.7853488862310698  0.4649353779037355
  0.1258404636959156  0.9719878063015912  0.4394180111992654
  0.6251094208910999  0.4728388474192613  0.4423477162933551
  0.5591601394967540  0.2849948622262772  0.9695282434939827
  0.9420058722420137  0.9959594979378181  0.5422682663845251
  0.6257261774108969  0.3089879085081080  0.5721854098595927
  0.4411319262383913  0.4957467738636510  0.5442447109323183
  0.0579090008911933  0.7849044126026001  0.9644025866869015
  0.8742115932837393  0.8093993550766783  0.0669545101003095
  0.9400764259353451  0.9371284132194617  0.1459698947721719
  0.9616119249443642  0.9448312749676262  0.3351428460389343
  0.9396605844677168  0.8447167092330545  0.8596470506721658
  0.5598896751971694  0.4369156635622531  0.6497435903355679
  0.5390760834019801  0.3363663782100659  0.1751507078784371
  0.0383695157973776  0.8362121468361252  0.1709089091075739
  0.5384964224690378  0.4446238188946552  0.8390657326629380
  0.5603422654091048  0.3443422475144473  0.3643162507589892
  0.4610870418549098  0.4443382129748699  0.3386457354497310
  0.0597748285094681  0.8438342239124381  0.3604131085733258
  0.0389683657822744  0.9444889691324718  0.8352828148814950
  0.4615886628098522  0.3360891029503321  0.6747528219579735
  0.9609840949597626  0.8367103139293874  0.6706999532345037
  0.0603238988028494  0.9365792039995497  0.6462295011853456
  0.4402177125835820  0.3436399568365047  0.8643341176867523
  0.4397220126406864  0.4363136388387403  0.1497160266032509
  0.8510108954739479  0.0412731263795934  0.2469338126027480
  0.8500621263038894  0.7406052684849769  0.7617530832009649
  0.6487969503966866  0.5414277060229864  0.7485057775720350
  0.6500320587288471  0.2402894652819541  0.2663085858023919
  0.1485506477224305  0.7392554168197165  0.2613670962204111
  0.3501427306325269  0.5404326994672815  0.2475399058814389
  0.1499553229955737  0.0405081515820029  0.7457121740855186
  0.3512972067042384  0.2393063095760155  0.7637415416663771
  0.8283582214340726  0.9981018221699927  0.5969738562905178
  0.8732039605500788  0.0852480508883673  0.8974679524023301
  0.8725035088889399  0.6969594278551909  0.1114831915383263
  0.6263405161887974  0.5850001490183985  0.3987383154385995
  0.6280216346290572  0.1964331021311168  0.6161831102550295
  0.1713661503870298  0.7820970128725051  0.9111382561056089
  0.6716847299127906  0.4987174441121098  0.0989342366428119
  0.6727450102871515  0.2834285052961860  0.9162890458567716
  0.3272839627246853  0.4975337192492475  0.5977123888048652
  0.1262189447900965  0.6955355096873319  0.6110706835598521
  0.1277433789218563  0.0843685653929782  0.3959582238934942
  0.3735654745435966  0.1953617029674390  0.1132880374020857
  0.8271457294846769  0.7833663931947896  0.4114347530866738
  0.1726558606071436  0.9974563564937995  0.0959429665771054
  0.3285829657926413  0.2823614650081012  0.4135302241984107
  0.3725555955367597  0.5841884339966086  0.8980129955951668
 
  0.00000000E+00  0.00000000E+00  0.00000000E+00
  0.00000000E+00  0.00000000E+00  0.00000000E+00
  0.00000000E+00  0.00000000E+00  0.00000000E+00
  0.00000000E+00  0.00000000E+00  0.00000000E+00
  0.00000000E+00  0.00000000E+00  0.00000000E+00
  0.00000000E+00  0.00000000E+00  0.00000000E+00
  0.00000000E+00  0.00000000E+00  0.00000000E+00
  0.00000000E+00  0.00000000E+00  0.00000000E+00
  0.00000000E+00  0.00000000E+00  0.00000000E+00
  0.00000000E+00  0.00000000E+00  0.00000000E+00
  0.00000000E+00  0.00000000E+00  0.00000000E+00
  0.00000000E+00  0.00000000E+00  0.00000000E+00
  0.00000000E+00  0.00000000E+00  0.00000000E+00
  0.00000000E+00  0.00000000E+00  0.00000000E+00
  0.00000000E+00  0.00000000E+00  0.00000000E+00
  0.00000000E+00  0.00000000E+00  0.00000000E+00
  0.00000000E+00  0.00000000E+00  0.00000000E+00
  0.00000000E+00  0.00000000E+00  0.00000000E+00
  0.00000000E+00  0.00000000E+00  0.00000000E+00
  0.00000000E+00  0.00000000E+00  0.00000000E+00
  0.00000000E+00  0.00000000E+00  0.00000000E+00
  0.00000000E+00  0.00000000E+00  0.00000000E+00
  0.00000000E+00  0.00000000E+00  0.00000000E+00
  0.00000000E+00  0.00000000E+00  0.00000000E+00
  0.00000000E+00  0.00000000E+00  0.00000000E+00
  0.00000000E+00  0.00000000E+00  0.00000000E+00
  0.00000000E+00  0.00000000E+00  0.00000000E+00
  0.00000000E+00  0.00000000E+00  0.00000000E+00
  0.00000000E+00  0.00000000E+00  0.00000000E+00
  0.00000000E+00  0.00000000E+00  0.00000000E+00
  0.00000000E+00  0.00000000E+00  0.00000000E+00
  0.00000000E+00  0.00000000E+00  0.00000000E+00
  0.00000000E+00  0.00000000E+00  0.00000000E+00
  0.00000000E+00  0.00000000E+00  0.00000000E+00
  0.00000000E+00  0.00000000E+00  0.00000000E+00
  0.00000000E+00  0.00000000E+00  0.00000000E+00
  0.00000000E+00  0.00000000E+00  0.00000000E+00
  0.00000000E+00  0.00000000E+00  0.00000000E+00
  0.00000000E+00  0.00000000E+00  0.00000000E+00
  0.00000000E+00  0.00000000E+00  0.00000000E+00
  0.00000000E+00  0.00000000E+00  0.00000000E+00
  0.00000000E+00  0.00000000E+00  0.00000000E+00
  0.00000000E+00  0.00000000E+00  0.00000000E+00
  0.00000000E+00  0.00000000E+00  0.00000000E+00
  0.00000000E+00  0.00000000E+00  0.00000000E+00
  0.00000000E+00  0.00000000E+00  0.00000000E+00
  0.00000000E+00  0.00000000E+00  0.00000000E+00
  0.00000000E+00  0.00000000E+00  0.00000000E+00
  0.00000000E+00  0.00000000E+00  0.00000000E+00
  0.00000000E+00  0.00000000E+00  0.00000000E+00
  0.00000000E+00  0.00000000E+00  0.00000000E+00
  0.00000000E+00  0.00000000E+00  0.00000000E+00
  0.00000000E+00  0.00000000E+00  0.00000000E+00
  0.00000000E+00  0.00000000E+00  0.00000000E+00
  0.00000000E+00  0.00000000E+00  0.00000000E+00
  0.00000000E+00  0.00000000E+00  0.00000000E+00
  0.00000000E+00  0.00000000E+00  0.00000000E+00
  0.00000000E+00  0.00000000E+00  0.00000000E+00
  0.00000000E+00  0.00000000E+00  0.00000000E+00
  0.00000000E+00  0.00000000E+00  0.00000000E+00
  0.00000000E+00  0.00000000E+00  0.00000000E+00
  0.00000000E+00  0.00000000E+00  0.00000000E+00
  0.00000000E+00  0.00000000E+00  0.00000000E+00
  0.00000000E+00  0.00000000E+00  0.00000000E+00
  0.00000000E+00  0.00000000E+00  0.00000000E+00
  0.00000000E+00  0.00000000E+00  0.00000000E+00
  0.00000000E+00  0.00000000E+00  0.00000000E+00
  0.00000000E+00  0.00000000E+00  0.00000000E+00
  0.00000000E+00  0.00000000E+00  0.00000000E+00
  0.00000000E+00  0.00000000E+00  0.00000000E+00
  0.00000000E+00  0.00000000E+00  0.00000000E+00
  0.00000000E+00  0.00000000E+00  0.00000000E+00
  0.00000000E+00  0.00000000E+00  0.00000000E+00
  0.00000000E+00  0.00000000E+00  0.00000000E+00
  0.00000000E+00  0.00000000E+00  0.00000000E+00
  0.00000000E+00  0.00000000E+00  0.00000000E+00
  0.00000000E+00  0.00000000E+00  0.00000000E+00
  0.00000000E+00  0.00000000E+00  0.00000000E+00
  0.00000000E+00  0.00000000E+00  0.00000000E+00
  0.00000000E+00  0.00000000E+00  0.00000000E+00
  0.00000000E+00  0.00000000E+00  0.00000000E+00
  0.00000000E+00  0.00000000E+00  0.00000000E+00
  0.00000000E+00  0.00000000E+00  0.00000000E+00
  0.00000000E+00  0.00000000E+00  0.00000000E+00
  0.00000000E+00  0.00000000E+00  0.00000000E+00
  0.00000000E+00  0.00000000E+00  0.00000000E+00
  0.00000000E+00  0.00000000E+00  0.00000000E+00
  0.00000000E+00  0.00000000E+00  0.00000000E+00
  0.00000000E+00  0.00000000E+00  0.00000000E+00
  0.00000000E+00  0.00000000E+00  0.00000000E+00
  0.00000000E+00  0.00000000E+00  0.00000000E+00
  0.00000000E+00  0.00000000E+00  0.00000000E+00
  0.00000000E+00  0.00000000E+00  0.00000000E+00
  0.00000000E+00  0.00000000E+00  0.00000000E+00
  0.00000000E+00  0.00000000E+00  0.00000000E+00
  0.00000000E+00  0.00000000E+00  0.00000000E+00
  0.00000000E+00  0.00000000E+00  0.00000000E+00
  0.00000000E+00  0.00000000E+00  0.00000000E+00
  0.00000000E+00  0.00000000E+00  0.00000000E+00
  0.00000000E+00  0.00000000E+00  0.00000000E+00
  0.00000000E+00  0.00000000E+00  0.00000000E+00
  0.00000000E+00  0.00000000E+00  0.00000000E+00
  0.00000000E+00  0.00000000E+00  0.00000000E+00
  0.00000000E+00  0.00000000E+00  0.00000000E+00
  0.00000000E+00  0.00000000E+00  0.00000000E+00
  0.00000000E+00  0.00000000E+00  0.00000000E+00
  0.00000000E+00  0.00000000E+00  0.00000000E+00
  0.00000000E+00  0.00000000E+00  0.00000000E+00
  0.00000000E+00  0.00000000E+00  0.00000000E+00
  0.00000000E+00  0.00000000E+00  0.00000000E+00
  0.00000000E+00  0.00000000E+00  0.00000000E+00
  0.00000000E+00  0.00000000E+00  0.00000000E+00
  0.00000000E+00  0.00000000E+00  0.00000000E+00
  0.00000000E+00  0.00000000E+00  0.00000000E+00
  0.00000000E+00  0.00000000E+00  0.00000000E+00
  0.00000000E+00  0.00000000E+00  0.00000000E+00
  0.00000000E+00  0.00000000E+00  0.00000000E+00
  0.00000000E+00  0.00000000E+00  0.00000000E+00
  0.00000000E+00  0.00000000E+00  0.00000000E+00
  0.00000000E+00  0.00000000E+00  0.00000000E+00
  0.00000000E+00  0.00000000E+00  0.00000000E+00
  0.00000000E+00  0.00000000E+00  0.00000000E+00
  0.00000000E+00  0.00000000E+00  0.00000000E+00
  0.00000000E+00  0.00000000E+00  0.00000000E+00
  0.00000000E+00  0.00000000E+00  0.00000000E+00
  0.00000000E+00  0.00000000E+00  0.00000000E+00
  0.00000000E+00  0.00000000E+00  0.00000000E+00
  0.00000000E+00  0.00000000E+00  0.00000000E+00
  0.00000000E+00  0.00000000E+00  0.00000000E+00
  0.00000000E+00  0.00000000E+00  0.00000000E+00
  0.00000000E+00  0.00000000E+00  0.00000000E+00
  0.00000000E+00  0.00000000E+00  0.00000000E+00
  0.00000000E+00  0.00000000E+00  0.00000000E+00
  0.00000000E+00  0.00000000E+00  0.00000000E+00
  0.00000000E+00  0.00000000E+00  0.00000000E+00
  0.00000000E+00  0.00000000E+00  0.00000000E+00
  0.00000000E+00  0.00000000E+00  0.00000000E+00
  0.00000000E+00  0.00000000E+00  0.00000000E+00
  0.00000000E+00  0.00000000E+00  0.00000000E+00
  0.00000000E+00  0.00000000E+00  0.00000000E+00
  0.00000000E+00  0.00000000E+00  0.00000000E+00
  0.00000000E+00  0.00000000E+00  0.00000000E+00
  0.00000000E+00  0.00000000E+00  0.00000000E+00
  0.00000000E+00  0.00000000E+00  0.00000000E+00
  0.00000000E+00  0.00000000E+00  0.00000000E+00
  0.00000000E+00  0.00000000E+00  0.00000000E+00
  0.00000000E+00  0.00000000E+00  0.00000000E+00
  0.00000000E+00  0.00000000E+00  0.00000000E+00
  0.00000000E+00  0.00000000E+00  0.00000000E+00
  0.00000000E+00  0.00000000E+00  0.00000000E+00
  0.00000000E+00  0.00000000E+00  0.00000000E+00
  0.00000000E+00  0.00000000E+00  0.00000000E+00
  0.00000000E+00  0.00000000E+00  0.00000000E+00
  0.00000000E+00  0.00000000E+00  0.00000000E+00
  0.00000000E+00  0.00000000E+00  0.00000000E+00
  0.00000000E+00  0.00000000E+00  0.00000000E+00
