Zn_H                                    
   1.00000000000000     
     8.9482743628902419   -0.0003832412582452   -0.0004609698311994
     0.0031152574519675   32.7523635553375527   -3.0082243319996347
     0.0010658328048936   -0.6009032403819680    6.8017999017324273
   C    Zn   H    N    O 
    80     4    32    24    16
Direct
  0.8967243700742600  0.9572250335576626  0.1519089222372045
  0.7727976716267762  0.9519369434406855  0.4289327972519672
  0.8972404437907500  0.7985496307094593  0.8942526744909287
  0.6032042518854084  0.4572215404050581  0.6514563235947719
  0.7262969374458663  0.3037337407966234  0.1164045222302335
  0.2244781994513971  0.8038306671299580  0.1169077850820273
  0.7269755876039170  0.4519401683926958  0.9285467585180527
  0.6024308076148870  0.2985096765968720  0.3935360717712868
  0.2759297522757507  0.4521292030165327  0.4286701195385163
  0.1007050568309893  0.7985518529947910  0.3940713003587675
  0.2237441871173971  0.9521228288464982  0.9290815198829634
  0.2756084013575020  0.3037850651185039  0.6162936775924877
  0.7735324685251541  0.8037451564777243  0.6169733717723105
  0.0998847309324375  0.9572560048497536  0.6518364979700735
  0.3993222103267513  0.2985200886298216  0.8935110002305890
  0.3996227800565677  0.4572444797512105  0.1512600699369671
  0.6929834783070135  0.0321587886285855  0.1407243631743498
  0.8313790333166580  0.0502970113759318  0.4636868985336449
  0.8322118299275658  0.7054419693143927  0.5814970238442427
  0.6682338250549904  0.5502793933940708  0.9633818155105445
  0.6677225671569573  0.2053734055064140  0.0808258721354562
  0.3043311509735531  0.7236720647033721  0.4052328589989216
  0.8068275712889630  0.5322008613738234  0.6405038846271225
  0.8052164653987219  0.2234797060388303  0.4045679148652965
  0.1966598087144362  0.5322076487827516  0.1393606139073640
  0.1664591527442667  0.7054629043312488  0.0818398475064299
  0.1647990263077688  0.0504906243455068  0.9630521774903968
  0.3333136770740310  0.2053741290794875  0.5812456618362702
  0.6944241552967441  0.7235002013013627  0.9050735751254209
  0.3029561570527548  0.0321760725741811  0.6399522244836433
  0.1957384571683463  0.2236877652339970  0.9048968669139512
  0.3346248970043533  0.5504524686610637  0.4625880216693901
  0.6892994989034946  0.0766967372501313  0.1271932921008130
  0.8184076604172290  0.0946297260050741  0.4491864425075036
  0.8193422786785476  0.6610935778231521  0.5957536074196952
  0.6811903499312066  0.5946194418656816  0.9490586622230808
  0.6803437109798267  0.1610323864772099  0.0954440738867959
  0.3090836580106924  0.6791231402273752  0.4181342123341025
  0.8103379852096708  0.5767410525493091  0.6270416675131472
  0.8091461787101011  0.1789386634896317  0.4176975839251966
  0.1919717787942758  0.5767539371287995  0.1262345988117701
  0.1806431220036799  0.6611215686327938  0.0956637081091145
  0.1791735723231938  0.0948117905504233  0.9489021320880795
  0.3191679938934371  0.1610494060123315  0.5954433265421741
  0.6904501093594178  0.6789477860689459  0.9180048069468114
  0.3077300972987658  0.0767076775897593  0.6265836253515573
  0.1908009291792254  0.1791468196956032  0.9179718764347982
  0.3204399547325991  0.5947810138547780  0.4486316735178875
  0.6258346531915961  0.0890476163953835  0.9616816804371879
  0.8777242563650631  0.1245803409133543  0.5985752576303653
  0.8786166181113941  0.6311576559920056  0.4462431859458107
  0.6218887642994204  0.6245430836670849  0.0985911028128967
  0.6210428983242267  0.1310677605856654  0.9460900172738036
  0.3727751276270581  0.6668140322478422  0.5835879867815805
  0.8737903723612703  0.5891276845778890  0.4615968011138705
  0.8726604619509928  0.1665987065245744  0.5831816168642945
  0.1283590293856349  0.5890694609919720  0.9607252844127601
  0.1222826322883463  0.6311093293835768  0.9457927315216850
  0.1208229179922000  0.1248597457762983  0.0986326400384456
  0.3775206669186488  0.1309898128997915  0.4457288474018313
  0.6269289761747530  0.6665699880751959  0.0833986075188164
  0.3714212946648914  0.0889688579040353  0.4609760964075136
  0.1270599129404957  0.1668826011772993  0.0835257896398005
  0.3788782942549105  0.6247800214715369  0.5984861772368220
  0.8037803989448662  0.9790586069023135  0.2982318802572337
  0.8047164304639054  0.7766402937099528  0.7476667616662098
  0.6960739483620415  0.4790582590671448  0.7978149198752291
  0.6950204767132746  0.2766042291284307  0.2469614922631607
  0.1934706493876988  0.7767048664654581  0.2475724255662684
  0.3070511151971473  0.4791845701527322  0.2976811450647219
  0.1924122511666013  0.9791974401193997  0.7982722777804270
  0.3066920977581802  0.2766545622287779  0.7469345852543228
  0.7514238960115094  0.1065349437276311  0.2804555034089091
  0.7524612834722575  0.6491475132231415  0.7644646995278279
  0.7481838003584897  0.6065572518694822  0.7804073855110758
  0.7471489731904839  0.1491161813172397  0.2642742610954798
  0.2478514368552638  0.6492459042900833  0.2643275560680038
  0.2531834022837458  0.6066481505372678  0.2799892314501520
  0.2465140935615864  0.1066382795987408  0.7801886173228780
  0.2519605477192002  0.1492250303234144  0.7642623150957490
  0.0556670892233839  0.8779241249927310  0.0231886846103606
  0.9418451827106011  0.8778850771267344  0.5230881571338415
  0.4442697588273603  0.3779492900162538  0.5227652309042057
  0.5578870051524589  0.3778768521644977  0.0225820399543650
  0.4281240151430907  0.1407537325752557  0.3166738539227865
  0.9184581465232284  0.5654308019907432  0.3441271170991484
  0.9170980863106664  0.1903289268189496  0.7006464967528458
  0.5811946114234345  0.0653314493909463  0.8442980867528576
  0.5823985328576526  0.6902762949722856  0.2009235876852529
  0.5715220727297279  0.6146524241447011  0.2274729182169182
  0.0717164896143530  0.6409276279381544  0.8168603150782587
  0.0701706222726912  0.1150712042872044  0.2275988767838797
  0.9289311694060913  0.6410280586980193  0.3172725697463008
  0.0832459883637497  0.1906764354273847  0.2012016874194487
  0.0844531964607285  0.5653156651311733  0.8429417823622742
  0.4166167101201026  0.6905723617767379  0.7013873057753344
  0.4294749024663744  0.6149412167315873  0.7273549505239529
  0.5707862193305075  0.1409034078649540  0.8170051111570444
  0.9281093048010902  0.1147227374686821  0.7275209872924009
  0.4153496987139889  0.0651791191981772  0.3433651514948650
  0.7924216811126854  0.4566819669921429  0.0646215321340335
  0.2103096734580063  0.2990456969324455  0.4800671334177338
  0.4489924838651334  0.4674580048860122  0.0235079300502505
  0.0513461581013317  0.7882657107514319  0.5216505035859669
  0.2891386087157031  0.9569226330192464  0.0652247832961450
  0.4486368340273046  0.2882491874726014  0.0211581817241893
  0.9461489339757776  0.9675348473750773  0.0244274555848136
  0.7082015724955184  0.7989614477692939  0.4807973772202061
  0.0504660948702309  0.9674734502836415  0.5241300667017796
  0.5538292544561401  0.4675182162006664  0.5239244445782063
  0.7917106388760473  0.2989643920776217  0.9802716652025154
  0.7072481455205377  0.9566713264198228  0.5649570863154949
  0.5530375407931203  0.2882455374978292  0.5211461951290985
  0.2106482075119871  0.4569614829425959  0.5649246365747587
  0.2898831803907242  0.7990938381159154  0.9807577437893968
  0.9465778930086231  0.7882957908095705  0.0219235149511476
  0.9219440846516136  0.9195100668756595  0.1934614596958042
  0.8450933683811783  0.9158692366355794  0.3636369116318576
  0.9220839083368091  0.8362890605824305  0.8528001626916222
  0.5779961890261092  0.4195040912576502  0.6929893419374125
  0.6544522053653523  0.3398589682903790  0.1819217383267926
  0.1523483084423631  0.8399167727866939  0.1823990603540793
  0.6547457356710922  0.4158660801102698  0.8632236007244032
  0.5776312551686686  0.3362586681763915  0.3521976239455782
  0.3478084487777693  0.4159948634274855  0.3634166047744856
  0.0755833684587017  0.8362847730743823  0.3526691829525745
  0.1519865430594081  0.9159756796002583  0.8637448518007531
  0.3475909301142650  0.3398880609212753  0.6818588281267211
  0.8453418203205842  0.8398729883896436  0.6824647369681429
  0.0751747476352662  0.9195235770022165  0.6934374344003871
  0.4243019226080023  0.3362645573694820  0.8521572439345491
  0.4245160694696821  0.4195286691886366  0.1929770650912204
  0.7675753173646456  0.0215797187369660  0.3076596398420577
  0.7687606167952126  0.7341147023551997  0.7380556697168075
  0.7321633274804071  0.5215894004395878  0.8073272687776196
  0.7309777600818279  0.2340748400933776  0.2374322943139333
  0.2298715639006446  0.7342045677473976  0.2381026174052394
  0.2709108800885929  0.5216940021319800  0.3066952532009353
  0.2285644728434022  0.0217034730658128  0.8072994183947841
  0.2702214021800415  0.2341630169205615  0.7376307518584753
  0.6363292003980803  0.0055840033069359  0.0132966206433736
  0.8962320654993192  0.0388869204061919  0.6033249641263936
  0.8966989302431756  0.7169115561913983  0.4417361382338214
  0.6033337759160631  0.5388436783294352  0.1029311828683532
  0.6035989505983039  0.2168125143391322  0.9407308121916387
  0.3600642390769835  0.7502933250449217  0.5332839043141888
  0.8636991872949977  0.5056495603388669  0.5131424814456480
  0.8614250933060035  0.2500480685245776  0.5324443347344641
  0.1410127831078043  0.5055705340865728  0.0113170787466501
  0.1010422213073099  0.7168570968833592  0.9425991936114926
  0.0989546783266206  0.0391703631317526  0.1021938922219334
  0.3984242190916163  0.2167089334744645  0.4415984630205969
  0.6382461885715713  0.7500601232912416  0.0330430407101261
  0.3586213242076255  0.0055077737946974  0.5120483773485347
  0.1401619875428040  0.2503496938411587  0.0329217941717914
  0.4002725810223353  0.5390925445619459  0.6017452567786137
 
  0.00000000E+00  0.00000000E+00  0.00000000E+00
  0.00000000E+00  0.00000000E+00  0.00000000E+00
  0.00000000E+00  0.00000000E+00  0.00000000E+00
  0.00000000E+00  0.00000000E+00  0.00000000E+00
  0.00000000E+00  0.00000000E+00  0.00000000E+00
  0.00000000E+00  0.00000000E+00  0.00000000E+00
  0.00000000E+00  0.00000000E+00  0.00000000E+00
  0.00000000E+00  0.00000000E+00  0.00000000E+00
  0.00000000E+00  0.00000000E+00  0.00000000E+00
  0.00000000E+00  0.00000000E+00  0.00000000E+00
  0.00000000E+00  0.00000000E+00  0.00000000E+00
  0.00000000E+00  0.00000000E+00  0.00000000E+00
  0.00000000E+00  0.00000000E+00  0.00000000E+00
  0.00000000E+00  0.00000000E+00  0.00000000E+00
  0.00000000E+00  0.00000000E+00  0.00000000E+00
  0.00000000E+00  0.00000000E+00  0.00000000E+00
  0.00000000E+00  0.00000000E+00  0.00000000E+00
  0.00000000E+00  0.00000000E+00  0.00000000E+00
  0.00000000E+00  0.00000000E+00  0.00000000E+00
  0.00000000E+00  0.00000000E+00  0.00000000E+00
  0.00000000E+00  0.00000000E+00  0.00000000E+00
  0.00000000E+00  0.00000000E+00  0.00000000E+00
  0.00000000E+00  0.00000000E+00  0.00000000E+00
  0.00000000E+00  0.00000000E+00  0.00000000E+00
  0.00000000E+00  0.00000000E+00  0.00000000E+00
  0.00000000E+00  0.00000000E+00  0.00000000E+00
  0.00000000E+00  0.00000000E+00  0.00000000E+00
  0.00000000E+00  0.00000000E+00  0.00000000E+00
  0.00000000E+00  0.00000000E+00  0.00000000E+00
  0.00000000E+00  0.00000000E+00  0.00000000E+00
  0.00000000E+00  0.00000000E+00  0.00000000E+00
  0.00000000E+00  0.00000000E+00  0.00000000E+00
  0.00000000E+00  0.00000000E+00  0.00000000E+00
  0.00000000E+00  0.00000000E+00  0.00000000E+00
  0.00000000E+00  0.00000000E+00  0.00000000E+00
  0.00000000E+00  0.00000000E+00  0.00000000E+00
  0.00000000E+00  0.00000000E+00  0.00000000E+00
  0.00000000E+00  0.00000000E+00  0.00000000E+00
  0.00000000E+00  0.00000000E+00  0.00000000E+00
  0.00000000E+00  0.00000000E+00  0.00000000E+00
  0.00000000E+00  0.00000000E+00  0.00000000E+00
  0.00000000E+00  0.00000000E+00  0.00000000E+00
  0.00000000E+00  0.00000000E+00  0.00000000E+00
  0.00000000E+00  0.00000000E+00  0.00000000E+00
  0.00000000E+00  0.00000000E+00  0.00000000E+00
  0.00000000E+00  0.00000000E+00  0.00000000E+00
  0.00000000E+00  0.00000000E+00  0.00000000E+00
  0.00000000E+00  0.00000000E+00  0.00000000E+00
  0.00000000E+00  0.00000000E+00  0.00000000E+00
  0.00000000E+00  0.00000000E+00  0.00000000E+00
  0.00000000E+00  0.00000000E+00  0.00000000E+00
  0.00000000E+00  0.00000000E+00  0.00000000E+00
  0.00000000E+00  0.00000000E+00  0.00000000E+00
  0.00000000E+00  0.00000000E+00  0.00000000E+00
  0.00000000E+00  0.00000000E+00  0.00000000E+00
  0.00000000E+00  0.00000000E+00  0.00000000E+00
  0.00000000E+00  0.00000000E+00  0.00000000E+00
  0.00000000E+00  0.00000000E+00  0.00000000E+00
  0.00000000E+00  0.00000000E+00  0.00000000E+00
  0.00000000E+00  0.00000000E+00  0.00000000E+00
  0.00000000E+00  0.00000000E+00  0.00000000E+00
  0.00000000E+00  0.00000000E+00  0.00000000E+00
  0.00000000E+00  0.00000000E+00  0.00000000E+00
  0.00000000E+00  0.00000000E+00  0.00000000E+00
  0.00000000E+00  0.00000000E+00  0.00000000E+00
  0.00000000E+00  0.00000000E+00  0.00000000E+00
  0.00000000E+00  0.00000000E+00  0.00000000E+00
  0.00000000E+00  0.00000000E+00  0.00000000E+00
  0.00000000E+00  0.00000000E+00  0.00000000E+00
  0.00000000E+00  0.00000000E+00  0.00000000E+00
  0.00000000E+00  0.00000000E+00  0.00000000E+00
  0.00000000E+00  0.00000000E+00  0.00000000E+00
  0.00000000E+00  0.00000000E+00  0.00000000E+00
  0.00000000E+00  0.00000000E+00  0.00000000E+00
  0.00000000E+00  0.00000000E+00  0.00000000E+00
  0.00000000E+00  0.00000000E+00  0.00000000E+00
  0.00000000E+00  0.00000000E+00  0.00000000E+00
  0.00000000E+00  0.00000000E+00  0.00000000E+00
  0.00000000E+00  0.00000000E+00  0.00000000E+00
  0.00000000E+00  0.00000000E+00  0.00000000E+00
  0.00000000E+00  0.00000000E+00  0.00000000E+00
  0.00000000E+00  0.00000000E+00  0.00000000E+00
  0.00000000E+00  0.00000000E+00  0.00000000E+00
  0.00000000E+00  0.00000000E+00  0.00000000E+00
  0.00000000E+00  0.00000000E+00  0.00000000E+00
  0.00000000E+00  0.00000000E+00  0.00000000E+00
  0.00000000E+00  0.00000000E+00  0.00000000E+00
  0.00000000E+00  0.00000000E+00  0.00000000E+00
  0.00000000E+00  0.00000000E+00  0.00000000E+00
  0.00000000E+00  0.00000000E+00  0.00000000E+00
  0.00000000E+00  0.00000000E+00  0.00000000E+00
  0.00000000E+00  0.00000000E+00  0.00000000E+00
  0.00000000E+00  0.00000000E+00  0.00000000E+00
  0.00000000E+00  0.00000000E+00  0.00000000E+00
  0.00000000E+00  0.00000000E+00  0.00000000E+00
  0.00000000E+00  0.00000000E+00  0.00000000E+00
  0.00000000E+00  0.00000000E+00  0.00000000E+00
  0.00000000E+00  0.00000000E+00  0.00000000E+00
  0.00000000E+00  0.00000000E+00  0.00000000E+00
  0.00000000E+00  0.00000000E+00  0.00000000E+00
  0.00000000E+00  0.00000000E+00  0.00000000E+00
  0.00000000E+00  0.00000000E+00  0.00000000E+00
  0.00000000E+00  0.00000000E+00  0.00000000E+00
  0.00000000E+00  0.00000000E+00  0.00000000E+00
  0.00000000E+00  0.00000000E+00  0.00000000E+00
  0.00000000E+00  0.00000000E+00  0.00000000E+00
  0.00000000E+00  0.00000000E+00  0.00000000E+00
  0.00000000E+00  0.00000000E+00  0.00000000E+00
  0.00000000E+00  0.00000000E+00  0.00000000E+00
  0.00000000E+00  0.00000000E+00  0.00000000E+00
  0.00000000E+00  0.00000000E+00  0.00000000E+00
  0.00000000E+00  0.00000000E+00  0.00000000E+00
  0.00000000E+00  0.00000000E+00  0.00000000E+00
  0.00000000E+00  0.00000000E+00  0.00000000E+00
  0.00000000E+00  0.00000000E+00  0.00000000E+00
  0.00000000E+00  0.00000000E+00  0.00000000E+00
  0.00000000E+00  0.00000000E+00  0.00000000E+00
  0.00000000E+00  0.00000000E+00  0.00000000E+00
  0.00000000E+00  0.00000000E+00  0.00000000E+00
  0.00000000E+00  0.00000000E+00  0.00000000E+00
  0.00000000E+00  0.00000000E+00  0.00000000E+00
  0.00000000E+00  0.00000000E+00  0.00000000E+00
  0.00000000E+00  0.00000000E+00  0.00000000E+00
  0.00000000E+00  0.00000000E+00  0.00000000E+00
  0.00000000E+00  0.00000000E+00  0.00000000E+00
  0.00000000E+00  0.00000000E+00  0.00000000E+00
  0.00000000E+00  0.00000000E+00  0.00000000E+00
  0.00000000E+00  0.00000000E+00  0.00000000E+00
  0.00000000E+00  0.00000000E+00  0.00000000E+00
  0.00000000E+00  0.00000000E+00  0.00000000E+00
  0.00000000E+00  0.00000000E+00  0.00000000E+00
  0.00000000E+00  0.00000000E+00  0.00000000E+00
  0.00000000E+00  0.00000000E+00  0.00000000E+00
  0.00000000E+00  0.00000000E+00  0.00000000E+00
  0.00000000E+00  0.00000000E+00  0.00000000E+00
  0.00000000E+00  0.00000000E+00  0.00000000E+00
  0.00000000E+00  0.00000000E+00  0.00000000E+00
  0.00000000E+00  0.00000000E+00  0.00000000E+00
  0.00000000E+00  0.00000000E+00  0.00000000E+00
  0.00000000E+00  0.00000000E+00  0.00000000E+00
  0.00000000E+00  0.00000000E+00  0.00000000E+00
  0.00000000E+00  0.00000000E+00  0.00000000E+00
  0.00000000E+00  0.00000000E+00  0.00000000E+00
  0.00000000E+00  0.00000000E+00  0.00000000E+00
  0.00000000E+00  0.00000000E+00  0.00000000E+00
  0.00000000E+00  0.00000000E+00  0.00000000E+00
  0.00000000E+00  0.00000000E+00  0.00000000E+00
  0.00000000E+00  0.00000000E+00  0.00000000E+00
  0.00000000E+00  0.00000000E+00  0.00000000E+00
  0.00000000E+00  0.00000000E+00  0.00000000E+00
  0.00000000E+00  0.00000000E+00  0.00000000E+00
  0.00000000E+00  0.00000000E+00  0.00000000E+00
  0.00000000E+00  0.00000000E+00  0.00000000E+00
  0.00000000E+00  0.00000000E+00  0.00000000E+00
  0.00000000E+00  0.00000000E+00  0.00000000E+00
  0.00000000E+00  0.00000000E+00  0.00000000E+00
