CoH_exp5	                               
   1.00000000000000     
    24.1427706671651627    0.0014486469120321   -0.0063593307272582
     0.0016282335652765   24.9025395168151213    4.7100063612562852
    -0.0014424884732464    0.8549660790722216    6.2973961398563061
   C    Co   H    N    O 
    80     4    32    24    16
Direct
  0.8937133605312582  0.9660647498803954  0.1183208153632052
  0.9374978828043652  0.9846884101952256  0.3966805995303986
  0.8936741411566018  0.8141342712341810  0.9358177407612445
  0.6063420516232370  0.4660747264491434  0.6178003074159264
  0.5624219794157170  0.2956983677416360  0.1569665664278119
  0.0622627993610649  0.7954497415190005  0.1581643122069565
  0.5625198442470065  0.4848245378648173  0.8956820394943250
  0.6063233540206667  0.3142339129620311  0.4352517115369992
  0.4372288699294771  0.4846732397584930  0.3956580362500901
  0.1062568630647363  0.8139082729340288  0.4364133446392700
  0.0625239719694974  0.9847279274405167  0.8968110384136310
  0.4375953866180140  0.2956517817320687  0.6566331184389540
  0.9375581124125105  0.7955802297284933  0.6576804523004682
  0.1062573561077755  0.9660580741690268  0.6185853545686726
  0.3937521421666261  0.3141433535838871  0.9350091910110692
  0.3935442764020749  0.4659278594284899  0.1173454629121196
  0.8200564373966301  0.0302368313374402  0.4604355460045682
  0.8429739556120097  0.0852065541567910  0.0660955516932447
  0.8429880710517565  0.6951341899022125  0.9867190488798059
  0.6571244998448122  0.5851457158656572  0.5658251446809359
  0.6570547096494508  0.1952175268234484  0.4863822193506522
  0.1795898242624148  0.7498236502254727  0.0929722688079053
  0.6799662576584637  0.5302301647793968  0.9604408461968106
  0.6798452524499368  0.2501618374517776  0.0919374074371149
  0.3195425366508502  0.5297108490800326  0.4599170022097852
  0.1567072595481207  0.6947190938959480  0.4871907193793348
  0.1571101624681006  0.0850919037410307  0.5661276076235495
  0.3431388990431188  0.1951123880815615  0.9861156986516448
  0.8201120097641024  0.7501072223601781  0.5922593443801318
  0.1799991318091614  0.0302370800192620  0.9607268685920687
  0.3202512562981141  0.2500190931649229  0.5915620088238356
  0.3423683161249187  0.5847900111129292  0.0655255393734180
  0.7778891315830236  0.0726007005746681  0.4619748950417701
  0.8015581520710313  0.1273812204775098  0.0778477464557241
  0.8016180332299996  0.6529657966668196  0.9747642252695101
  0.6984871404917072  0.6273295024150300  0.5778043151308339
  0.6984241805236238  0.1530373586515950  0.4744814531292505
  0.2216272586348467  0.7073887522395026  0.0908831249115067
  0.7221486337496756  0.5725642174316334  0.9621045005662907
  0.7220228782801641  0.2078007956835393  0.0902632005739079
  0.2772934409479362  0.5719852744177487  0.4616104620229677
  0.1979388851529365  0.6524593677399579  0.4748464963701196
  0.1985367523862820  0.1272561319416496  0.5777807279497509
  0.3017748933916806  0.1529221343679268  0.9743145031204534
  0.7779570234263815  0.7077466728081490  0.5904972197021365
  0.2222301475828772  0.0725490510424009  0.9620723449523183
  0.2780761387216018  0.2076567650820920  0.5899929095017526
  0.3009605240229192  0.6269194988145870  0.0775947106818009
  0.7461016772306266  0.0659116673467963  0.6509439526429190
  0.7934207110949956  0.1744299761025587  0.8950660088653564
  0.7934977614810421  0.6059349782454078  0.1575616440507375
  0.7066041445297842  0.6743695054621810  0.3950227098945120
  0.7065700798233294  0.1060025266796174  0.6572863277822805
  0.2533650633063118  0.7141247404563131  0.9017339328891936
  0.7539477700332711  0.5658654138548727  0.1511728511016841
  0.7538245014010840  0.2144911277950428  0.9013023521841106
  0.2454590425533638  0.5651862032244566  0.6505610942818691
  0.2059735323114609  0.6052940153075212  0.6572448367838959
  0.2066444207438991  0.1742724112605814  0.3948848198831101
  0.2936711462313113  0.1058975930768042  0.1571743397934924
  0.7461520532387667  0.7144422784275548  0.4014180915528343
  0.2540807970845123  0.0658515060861049  0.1509975317718713
  0.2462373017436903  0.2143323753989606  0.4010209989640430
  0.2928413952191349  0.6740201079361938  0.8950268981653764
  0.8913393097006974  0.9992688577654647  0.2573841682541769
  0.8913026794284562  0.7810661057119148  0.7961894715258921
  0.6087318402894155  0.4992805650172301  0.7568637239166023
  0.6086706232265868  0.2811425522499320  0.2957010969204603
  0.1084941420101231  0.7807945014980149  0.2969487873916918
  0.3910124122332022  0.4990673930245251  0.2566151051609964
  0.1086679656423826  0.9992673338102662  0.7576321425021533
  0.3913944341611426  0.2810684471021503  0.7954057730324493
  0.7700891089485751  0.1198749705578237  0.2730323693480301
  0.7701544719494180  0.6604856774349983  0.7794593963787761
  0.7299471677252853  0.6198216822074087  0.7731458826553137
  0.7298590327582488  0.1605391378626422  0.2792309093983150
  0.2293633548378011  0.6600217095210112  0.2795206809492825
  0.2695189472150190  0.6193334592059614  0.2729064832577279
  0.2300401262182845  0.1197705303849901  0.7729853487567553
  0.2702808210886687  0.1604227754743945  0.7790752028493131
  0.9820810731635348  0.8900868767648191  0.0275699144667030
  0.0179402329995852  0.8900534397377911  0.5276754697717578
  0.5178900019304891  0.3902242058564980  0.5265417143092890
  0.4820856943823557  0.3902033943351668  0.0263005197300643
  0.3185330952532794  0.1011775749830974  0.3051929939366076
  0.7471307800111049  0.5290175470272800  0.2940126997683166
  0.7470047267060949  0.2513302543639142  0.7583396069404245
  0.7529279866479612  0.0290441083543485  0.7937614062931786
  0.7529626257031978  0.7512835984709767  0.2585091615575479
  0.6817829387846572  0.6790721194220595  0.2468936047612473
  0.1811723925008195  0.6005451774932666  0.8053488264522102
  0.1817744031058552  0.1789786323235418  0.2468821431136803
  0.8183060092622654  0.6012445759455218  0.3056796097678216
  0.2530285307696616  0.2511615806200425  0.2580356378007522
  0.2522308467872634  0.5282525955755872  0.7931723813233660
  0.2465879526984054  0.7510552670932924  0.7590944617154562
  0.3176274172471238  0.6787640304359996  0.7468753630487939
  0.6817844007169214  0.1013157257786901  0.8053815577586150
  0.8182507961724141  0.1791568070359801  0.7470299360164319
  0.2472556331446611  0.0290195412698182  0.2939259427699028
  0.5492082369378721  0.4997103058736201  0.0299396999061230
  0.4509243726857335  0.2808973688135907  0.5220548374392564
  0.3669079352805369  0.4650508063363290  0.9806308633720917
  0.1330276692069319  0.8146097048501701  0.5729618208021208
  0.0492483263040313  0.9995706156474213  0.0312266186176515
  0.3670367047417429  0.3148955392514523  0.0715559592906203
  0.8670508794036635  0.9652512634844044  0.9816094695543569
  0.9509092871584599  0.7808130094285346  0.5231584452368239
  0.1329031991070835  0.9652161572078768  0.4819585242545017
  0.6330310442986899  0.4652038611503215  0.4813349921460031
  0.5490345208985445  0.2809187208656567  0.0224907699024470
  0.9507987585752105  0.9995167351366305  0.5311431828765052
  0.6330584174575336  0.3149720607633810  0.5718559521511537
  0.4504667525355899  0.4995567776529768  0.5300620497650073
  0.0488518583069393  0.7807192382745711  0.0235822290845320
  0.8669319451347093  0.8149040204425404  0.0722666877243441
  0.9387854889623810  0.9332036252262057  0.1741102518796112
  0.9658613571553971  0.9448643567475443  0.3435356812934671
  0.9388269322379657  0.8468832155258639  0.8809968855575505
  0.5612020359083942  0.4333258199579717  0.6731685396176132
  0.5340529918094532  0.3354209896916771  0.2107686620445079
  0.0340010032159270  0.8352431192811665  0.2118890092571490
  0.5341036517805762  0.4450589434766314  0.8423073623594490
  0.5611948165998655  0.3470386877351999  0.3801516153605675
  0.4657673314965152  0.4449825863231851  0.3422824895694987
  0.0611912849336704  0.8468098717050339  0.3812793350883865
  0.0341297577638286  0.9449192806640596  0.8436208358176174
  0.4659665570999181  0.3353642672065149  0.7105390402608833
  0.9659606447982085  0.8352537841469072  0.7117109149672771
  0.0611776246239231  0.9332316461286112  0.6742759567608161
  0.4388560429163775  0.3469560998779002  0.8799482285054978
  0.4387491072816374  0.4332543823157664  0.1728738187196583
  0.8503200169797935  0.0392997824510033  0.2609954299762549
  0.8503011104791085  0.7410715126775855  0.7919757462797961
  0.6497667362441462  0.5392638831175347  0.7607342673732305
  0.6496694747195946  0.2411288973141623  0.2915746285781182
  0.1494144106998476  0.7407277833284454  0.2926480314976629
  0.3498437923346103  0.5389276545980408  0.2604493347004251
  0.1497101504681382  0.0392708567144311  0.7612380812936195
  0.3504265186432960  0.2410332521362122  0.7912951851899237
  0.8286605922673402  0.9890334718478115  0.6220100255292209
  0.8697152438681144  0.0891672999693895  0.8973334527495922
  0.8697407709674607  0.6911373733128485  0.1555793589207539
  0.6304158278329979  0.5890918222758188  0.3968980084929683
  0.6303645638728028  0.1912556625670945  0.6552568251197286
  0.1710460481154286  0.7911252089684382  0.9317179435404412
  0.6712994306055720  0.4890749477943928  0.1220878539459420
  0.6712146697455736  0.2913600368857985  0.9303648398988784
  0.3282039194736868  0.4884840208626429  0.6213402889455040
  0.1300567238056303  0.6907368918091521  0.6561900563853911
  0.1303957724141753  0.0890069925382591  0.3972463574369485
  0.3698931811946764  0.1911543936577402  0.1549454083894162
  0.8287344801342513  0.7912948176087227  0.4306877450261908
  0.1713775601954453  0.9890953951577046  0.1224718718121025
  0.3288831804217551  0.2911780548976353  0.4298847106974506
  0.3690612345536621  0.5887989168919674  0.8966044995315485
 
  0.00000000E+00  0.00000000E+00  0.00000000E+00
  0.00000000E+00  0.00000000E+00  0.00000000E+00
  0.00000000E+00  0.00000000E+00  0.00000000E+00
  0.00000000E+00  0.00000000E+00  0.00000000E+00
  0.00000000E+00  0.00000000E+00  0.00000000E+00
  0.00000000E+00  0.00000000E+00  0.00000000E+00
  0.00000000E+00  0.00000000E+00  0.00000000E+00
  0.00000000E+00  0.00000000E+00  0.00000000E+00
  0.00000000E+00  0.00000000E+00  0.00000000E+00
  0.00000000E+00  0.00000000E+00  0.00000000E+00
  0.00000000E+00  0.00000000E+00  0.00000000E+00
  0.00000000E+00  0.00000000E+00  0.00000000E+00
  0.00000000E+00  0.00000000E+00  0.00000000E+00
  0.00000000E+00  0.00000000E+00  0.00000000E+00
  0.00000000E+00  0.00000000E+00  0.00000000E+00
  0.00000000E+00  0.00000000E+00  0.00000000E+00
  0.00000000E+00  0.00000000E+00  0.00000000E+00
  0.00000000E+00  0.00000000E+00  0.00000000E+00
  0.00000000E+00  0.00000000E+00  0.00000000E+00
  0.00000000E+00  0.00000000E+00  0.00000000E+00
  0.00000000E+00  0.00000000E+00  0.00000000E+00
  0.00000000E+00  0.00000000E+00  0.00000000E+00
  0.00000000E+00  0.00000000E+00  0.00000000E+00
  0.00000000E+00  0.00000000E+00  0.00000000E+00
  0.00000000E+00  0.00000000E+00  0.00000000E+00
  0.00000000E+00  0.00000000E+00  0.00000000E+00
  0.00000000E+00  0.00000000E+00  0.00000000E+00
  0.00000000E+00  0.00000000E+00  0.00000000E+00
  0.00000000E+00  0.00000000E+00  0.00000000E+00
  0.00000000E+00  0.00000000E+00  0.00000000E+00
  0.00000000E+00  0.00000000E+00  0.00000000E+00
  0.00000000E+00  0.00000000E+00  0.00000000E+00
  0.00000000E+00  0.00000000E+00  0.00000000E+00
  0.00000000E+00  0.00000000E+00  0.00000000E+00
  0.00000000E+00  0.00000000E+00  0.00000000E+00
  0.00000000E+00  0.00000000E+00  0.00000000E+00
  0.00000000E+00  0.00000000E+00  0.00000000E+00
  0.00000000E+00  0.00000000E+00  0.00000000E+00
  0.00000000E+00  0.00000000E+00  0.00000000E+00
  0.00000000E+00  0.00000000E+00  0.00000000E+00
  0.00000000E+00  0.00000000E+00  0.00000000E+00
  0.00000000E+00  0.00000000E+00  0.00000000E+00
  0.00000000E+00  0.00000000E+00  0.00000000E+00
  0.00000000E+00  0.00000000E+00  0.00000000E+00
  0.00000000E+00  0.00000000E+00  0.00000000E+00
  0.00000000E+00  0.00000000E+00  0.00000000E+00
  0.00000000E+00  0.00000000E+00  0.00000000E+00
  0.00000000E+00  0.00000000E+00  0.00000000E+00
  0.00000000E+00  0.00000000E+00  0.00000000E+00
  0.00000000E+00  0.00000000E+00  0.00000000E+00
  0.00000000E+00  0.00000000E+00  0.00000000E+00
  0.00000000E+00  0.00000000E+00  0.00000000E+00
  0.00000000E+00  0.00000000E+00  0.00000000E+00
  0.00000000E+00  0.00000000E+00  0.00000000E+00
  0.00000000E+00  0.00000000E+00  0.00000000E+00
  0.00000000E+00  0.00000000E+00  0.00000000E+00
  0.00000000E+00  0.00000000E+00  0.00000000E+00
  0.00000000E+00  0.00000000E+00  0.00000000E+00
  0.00000000E+00  0.00000000E+00  0.00000000E+00
  0.00000000E+00  0.00000000E+00  0.00000000E+00
  0.00000000E+00  0.00000000E+00  0.00000000E+00
  0.00000000E+00  0.00000000E+00  0.00000000E+00
  0.00000000E+00  0.00000000E+00  0.00000000E+00
  0.00000000E+00  0.00000000E+00  0.00000000E+00
  0.00000000E+00  0.00000000E+00  0.00000000E+00
  0.00000000E+00  0.00000000E+00  0.00000000E+00
  0.00000000E+00  0.00000000E+00  0.00000000E+00
  0.00000000E+00  0.00000000E+00  0.00000000E+00
  0.00000000E+00  0.00000000E+00  0.00000000E+00
  0.00000000E+00  0.00000000E+00  0.00000000E+00
  0.00000000E+00  0.00000000E+00  0.00000000E+00
  0.00000000E+00  0.00000000E+00  0.00000000E+00
  0.00000000E+00  0.00000000E+00  0.00000000E+00
  0.00000000E+00  0.00000000E+00  0.00000000E+00
  0.00000000E+00  0.00000000E+00  0.00000000E+00
  0.00000000E+00  0.00000000E+00  0.00000000E+00
  0.00000000E+00  0.00000000E+00  0.00000000E+00
  0.00000000E+00  0.00000000E+00  0.00000000E+00
  0.00000000E+00  0.00000000E+00  0.00000000E+00
  0.00000000E+00  0.00000000E+00  0.00000000E+00
  0.00000000E+00  0.00000000E+00  0.00000000E+00
  0.00000000E+00  0.00000000E+00  0.00000000E+00
  0.00000000E+00  0.00000000E+00  0.00000000E+00
  0.00000000E+00  0.00000000E+00  0.00000000E+00
  0.00000000E+00  0.00000000E+00  0.00000000E+00
  0.00000000E+00  0.00000000E+00  0.00000000E+00
  0.00000000E+00  0.00000000E+00  0.00000000E+00
  0.00000000E+00  0.00000000E+00  0.00000000E+00
  0.00000000E+00  0.00000000E+00  0.00000000E+00
  0.00000000E+00  0.00000000E+00  0.00000000E+00
  0.00000000E+00  0.00000000E+00  0.00000000E+00
  0.00000000E+00  0.00000000E+00  0.00000000E+00
  0.00000000E+00  0.00000000E+00  0.00000000E+00
  0.00000000E+00  0.00000000E+00  0.00000000E+00
  0.00000000E+00  0.00000000E+00  0.00000000E+00
  0.00000000E+00  0.00000000E+00  0.00000000E+00
  0.00000000E+00  0.00000000E+00  0.00000000E+00
  0.00000000E+00  0.00000000E+00  0.00000000E+00
  0.00000000E+00  0.00000000E+00  0.00000000E+00
  0.00000000E+00  0.00000000E+00  0.00000000E+00
  0.00000000E+00  0.00000000E+00  0.00000000E+00
  0.00000000E+00  0.00000000E+00  0.00000000E+00
  0.00000000E+00  0.00000000E+00  0.00000000E+00
  0.00000000E+00  0.00000000E+00  0.00000000E+00
  0.00000000E+00  0.00000000E+00  0.00000000E+00
  0.00000000E+00  0.00000000E+00  0.00000000E+00
  0.00000000E+00  0.00000000E+00  0.00000000E+00
  0.00000000E+00  0.00000000E+00  0.00000000E+00
  0.00000000E+00  0.00000000E+00  0.00000000E+00
  0.00000000E+00  0.00000000E+00  0.00000000E+00
  0.00000000E+00  0.00000000E+00  0.00000000E+00
  0.00000000E+00  0.00000000E+00  0.00000000E+00
  0.00000000E+00  0.00000000E+00  0.00000000E+00
  0.00000000E+00  0.00000000E+00  0.00000000E+00
  0.00000000E+00  0.00000000E+00  0.00000000E+00
  0.00000000E+00  0.00000000E+00  0.00000000E+00
  0.00000000E+00  0.00000000E+00  0.00000000E+00
  0.00000000E+00  0.00000000E+00  0.00000000E+00
  0.00000000E+00  0.00000000E+00  0.00000000E+00
  0.00000000E+00  0.00000000E+00  0.00000000E+00
  0.00000000E+00  0.00000000E+00  0.00000000E+00
  0.00000000E+00  0.00000000E+00  0.00000000E+00
  0.00000000E+00  0.00000000E+00  0.00000000E+00
  0.00000000E+00  0.00000000E+00  0.00000000E+00
  0.00000000E+00  0.00000000E+00  0.00000000E+00
  0.00000000E+00  0.00000000E+00  0.00000000E+00
  0.00000000E+00  0.00000000E+00  0.00000000E+00
  0.00000000E+00  0.00000000E+00  0.00000000E+00
  0.00000000E+00  0.00000000E+00  0.00000000E+00
  0.00000000E+00  0.00000000E+00  0.00000000E+00
  0.00000000E+00  0.00000000E+00  0.00000000E+00
  0.00000000E+00  0.00000000E+00  0.00000000E+00
  0.00000000E+00  0.00000000E+00  0.00000000E+00
  0.00000000E+00  0.00000000E+00  0.00000000E+00
  0.00000000E+00  0.00000000E+00  0.00000000E+00
  0.00000000E+00  0.00000000E+00  0.00000000E+00
  0.00000000E+00  0.00000000E+00  0.00000000E+00
  0.00000000E+00  0.00000000E+00  0.00000000E+00
  0.00000000E+00  0.00000000E+00  0.00000000E+00
  0.00000000E+00  0.00000000E+00  0.00000000E+00
  0.00000000E+00  0.00000000E+00  0.00000000E+00
  0.00000000E+00  0.00000000E+00  0.00000000E+00
  0.00000000E+00  0.00000000E+00  0.00000000E+00
  0.00000000E+00  0.00000000E+00  0.00000000E+00
  0.00000000E+00  0.00000000E+00  0.00000000E+00
  0.00000000E+00  0.00000000E+00  0.00000000E+00
  0.00000000E+00  0.00000000E+00  0.00000000E+00
  0.00000000E+00  0.00000000E+00  0.00000000E+00
  0.00000000E+00  0.00000000E+00  0.00000000E+00
  0.00000000E+00  0.00000000E+00  0.00000000E+00
  0.00000000E+00  0.00000000E+00  0.00000000E+00
  0.00000000E+00  0.00000000E+00  0.00000000E+00
  0.00000000E+00  0.00000000E+00  0.00000000E+00
  0.00000000E+00  0.00000000E+00  0.00000000E+00
  0.00000000E+00  0.00000000E+00  0.00000000E+00
  0.00000000E+00  0.00000000E+00  0.00000000E+00
