FeH_exp1                                
   1.00000000000000     
    20.3315530564630613    0.0010095870849024    0.0025955564268967
     0.0005343186319661   29.0023610166276669    2.5591735896993484
     0.0002358182021760    0.4804432359227787    5.5678019534402550
   C    Fe   H    N    O 
    80     4    32    24    16
Direct
  0.8791335914419420  0.9663438524717520  0.1012685034281304
  0.9334896689188170  0.9807510221011100  0.4286479429173440
  0.8759597424593295  0.8171553827504496  0.8997551956358762
  0.6207681322845033  0.4664741058348980  0.6085792494332054
  0.5706541188209329  0.3013692585823193  0.0806710991980424
  0.0666050096873434  0.8000176563333454  0.0735996632646163
  0.5663107294273360  0.4807710864809707  0.9360148461675095
  0.6246499693303136  0.3168904387449203  0.4064712111512208
  0.4300281951687737  0.4791199997039328  0.4371183319788159
  0.1209099649817134  0.8143136646068427  0.4012761738510164
  0.0703298977732416  0.9793289952778039  0.9301313569894276
  0.4336545677577490  0.2998751112510760  0.5814843651001382
  0.9296607819203970  0.8015639486023289  0.5733738023927231
  0.1240395499219602  0.9641188080940850  0.6030115742708233
  0.3791640333115396  0.3143366286612732  0.9085046319904748
  0.3760964667516049  0.4635477900975644  0.1112630841939506
  0.8010349517251285  0.0394700215782535  0.4521704144279539
  0.8565238520242957  0.0762063202497529  0.0633319800429106
  0.8510336226999939  0.7077071875671379  0.9429132312075339
  0.6425722558386795  0.5764044993210362  0.5692394236331708
  0.6495306721483018  0.2073392078207661  0.4467859358539812
  0.1988410467727917  0.7407769596430427  0.0518156303591084
  0.6984176979282850  0.5400226628714222  0.9579288480607744
  0.7046912516294412  0.2440718227559557  0.0571280794249560
  0.2961494434560450  0.5368585691707608  0.4583062034732990
  0.1430689087996981  0.7045316214061899  0.4409112536314268
  0.1489703062096055  0.0735940557279520  0.5637186047200800
  0.3563372820588597  0.2045382914263243  0.9464081488621829
  0.7956390002691762  0.7440119371946992  0.5530371047231739
  0.2040328577800281  0.0368599790353343  0.9534490767569253
  0.3009370668316151  0.2412963178236680  0.5575018418869391
  0.3514791398935984  0.5730515886711558  0.0680831101715427
  0.7622015460196963  0.0825868728110990  0.4452596929583450
  0.8180997746327137  0.1192023676512122  0.0681719667811365
  0.8120472290620242  0.6648731932824532  0.9411037609355333
  0.6811239748554740  0.6194143066278457  0.5720911956339663
  0.6880896798690230  0.1644210383866422  0.4421015105550907
  0.2378830200581490  0.6976739160310643  0.0612921066227656
  0.7373218440116744  0.5831617834111569  0.9491338983598325
  0.7438826773059048  0.2010645904461086  0.0647016960184743
  0.2566106747302612  0.5797990178465184  0.4477575084073493
  0.1816889962059918  0.6615314396191749  0.4386007233390785
  0.1876142972055632  0.1164862424579169  0.5682408140160433
  0.3178063400997289  0.1615828292141686  0.9418070446393472
  0.7560215312269989  0.7011219199517669  0.5635895549272121
  0.2433025274762315  0.0798334539123928  0.9457302837836465
  0.2619807292750309  0.1982250110334220  0.5646734420786359
  0.3126013678696182  0.6159366454925035  0.0699414328486441
  0.7158093831099706  0.0851163676474371  0.6260138513348181
  0.8272884034718899  0.1578271093875117  0.8859857704306791
  0.8211388535970343  0.6264976888776417  0.1247833781976979
  0.6719508095342803  0.6578386573356738  0.3887065528681006
  0.6789360556590651  0.1258179164585940  0.6244322725039382
  0.2845610186549052  0.6949324753989075  0.8817463446421172
  0.7839736300329747  0.5858484596501654  0.1287664054568012
  0.7903582585668616  0.1985284087159798  0.8841896371903957
  0.2098002468709623  0.5825233963386651  0.6269091799033149
  0.1725228276303881  0.6231569076871040  0.6222888258961063
  0.1785964970199387  0.1550652379022850  0.3856774837604178
  0.3268858448306631  0.1229616250000305  0.1241081056945248
  0.7092229894979383  0.6984605132882891  0.3844138638200647
  0.2898127860358386  0.0823206331753283  0.1261150618095428
  0.2155757970411827  0.1957255707363714  0.3839675664133253
  0.3216994972397345  0.6542644352356604  0.8859621898434256
  0.8839761837786142  0.9978664236253394  0.2631665595732713
  0.8796480582578283  0.7854144099086540  0.7386934018639977
  0.6156715849673802  0.4980413285108938  0.7701613376950007
  0.6208462561745947  0.2852173374086746  0.2450817967267866
  0.1160160966100037  0.7828038650761755  0.2393209583598335
  0.3799616437372393  0.4953074553656549  0.2722016604436206
  0.1203029785162144  0.9956783649012024  0.7650744630753579
  0.3839834699389613  0.2828321633478694  0.7464946645629311
  0.7718979799833292  0.1211149358613923  0.2560419347714387
  0.7655561447703221  0.6628467305289618  0.7543944113005665
  0.7275987059385471  0.6214866609297047  0.7588289028686646
  0.7342662519998342  0.1625495812349058  0.2541128443153156
  0.2281850433751913  0.6594093485963128  0.2519551862052722
  0.2661487202363233  0.6180372580403883  0.2567325714583149
  0.2337918875914440  0.1183412142905098  0.7562051123432951
  0.2715694669124957  0.1597129649417894  0.7540586691484137
  0.9789963955236800  0.8906548566758801  0.0008308320086030
  0.0213044406430853  0.8902304531029088  0.5014132202486010
  0.5214757945296213  0.3903952169196714  0.5089175178751333
  0.4790955342312415  0.3899642882378558  0.0097445011921664
  0.3629797751095722  0.1253639403728357  0.2655915355195333
  0.7906385826377260  0.5556582294330425  0.2719560482660839
  0.7969478113268806  0.2288334687420814  0.7415989700810783
  0.7091927913015112  0.0547856932002873  0.7684063119904891
  0.7026665814065183  0.7285967525230461  0.2407938574916528
  0.6356957729118733  0.6552681887341052  0.2480032634183686
  0.1362271352370712  0.6257748086036230  0.7628400603299923
  0.1426037210396629  0.1526091127508593  0.2439414945446927
  0.8573992899433165  0.6290874719720634  0.2654418715554598
  0.2090429514877528  0.2260525457113687  0.2414739556598917
  0.2032090355447380  0.5524168360903445  0.7706722421181027
  0.2912089522702601  0.7250863828007823  0.7383141910510318
  0.3579042598894944  0.6516022182093764  0.7451733829224167
  0.6429078755563253  0.1283090349461276  0.7660580803853989
  0.8633108368875781  0.1553678803596625  0.7443071319956331
  0.2963587691630636  0.0520052055634181  0.2686795401377395
  0.5471215350960250  0.4947918018237871  0.0897903056826124
  0.4527623957225018  0.2858351442345182  0.4276581750120201
  0.3447128394625452  0.4640538217106709  0.9533947694895133
  0.1522130057061162  0.8131446797604411  0.5598329332843903
  0.0517730264270213  0.9936638771732476  0.0838638387686856
  0.3477144904258793  0.3132833871673313  0.0666489995389838
  0.8477484151273913  0.9674258098418562  0.9429843346073099
  0.9481942005508586  0.7870460932766079  0.4201856963560360
  0.1553238863880750  0.9647843932861448  0.4447437698876371
  0.6521246182422900  0.4676487052352769  0.4501144253811020
  0.5519806837993855  0.2868921603995176  0.9275776784261041
  0.9525323825915208  0.9947621178239885  0.5826304138912022
  0.6561040762547705  0.3163873429376096  0.5641484135689083
  0.4486996963007783  0.4936387021449562  0.5900795720467187
  0.0475103486104231  0.7860237217430779  0.9196366633787534
  0.8446742810616215  0.8166707301860399  0.0578876993629294
  0.9233036399895340  0.9320402668592749  0.1684341078844582
  0.9566856609454888  0.9408855965032004  0.3686828385340348
  0.9212396613219553  0.8506871911589542  0.8322585886279157
  0.5768882346397177  0.4319969676169464  0.6762619658320972
  0.5460984533047437  0.3408553210366705  0.1406468168814357
  0.0435141663994614  0.8399199565064492  0.1335172093409014
  0.5434453469282516  0.4407755300016802  0.8765791770720099
  0.5792471235661125  0.3503905453173743  0.3400366415684317
  0.4544390958878068  0.4395285409689933  0.3778665575675859
  0.0768643931893394  0.8486980297226125  0.3339951998759503
  0.0458372764557780  0.9398557617147603  0.8698511740514405
  0.4569440687783839  0.3396862705290076  0.6417715649631148
  0.9542269640658603  0.8411101327783896  0.6325912706020205
  0.0788170044728034  0.9305045850623657  0.6697065946834755
  0.4234840466629990  0.3485589785200887  0.8418629843446510
  0.4213216848594783  0.4299634279653830  0.1784817096747418
  0.8462941192146047  0.0391078715149291  0.2602356844801932
  0.8410652297351717  0.7445083957680652  0.7443154074835974
  0.6530819764646267  0.5394277314749729  0.7664978377850176
  0.6594120872659914  0.2443444665187045  0.2491488112017848
  0.1535253325420172  0.7414475181515172  0.2432661505093563
  0.3414993488834668  0.5362752456843864  0.2668031191141509
  0.1588174129276609  0.0365689670561551  0.7612991372030677
  0.3462127672891668  0.2416290255065761  0.7493657433440433
  0.7945169791379385  0.0051396695439934  0.6131597632377606
  0.8953079231251238  0.0721201550321311  0.8994409285401375
  0.8901762693070125  0.7118431732847341  0.1055811996958056
  0.6035365173989859  0.5721929245021116  0.4063339669840502
  0.6108050550649082  0.2113984983474992  0.6109134836461791
  0.2052856124828537  0.7748495036539538  0.8892506370373710
  0.7050116082122670  0.5058626084194486  0.1198576806185514
  0.7108070627225587  0.2783270983267272  0.8954776941153995
  0.2901935882852342  0.5029151424817968  0.6218912991188859
  0.1039693236588093  0.7087747813750696  0.6036024453314610
  0.1102134634243725  0.0695592618896939  0.3997032301123227
  0.3951244088454260  0.2085882192482487  0.1102871017655573
  0.7897162265367328  0.7779870596649516  0.3896132944790764
  0.2101053552606871  0.0026377128558082  0.1153464968353859
  0.2945073247078511  0.2756058058801045  0.3963572725075863
  0.3905200227787873  0.5688454723275527  0.9051423884980210
 
  0.00000000E+00  0.00000000E+00  0.00000000E+00
  0.00000000E+00  0.00000000E+00  0.00000000E+00
  0.00000000E+00  0.00000000E+00  0.00000000E+00
  0.00000000E+00  0.00000000E+00  0.00000000E+00
  0.00000000E+00  0.00000000E+00  0.00000000E+00
  0.00000000E+00  0.00000000E+00  0.00000000E+00
  0.00000000E+00  0.00000000E+00  0.00000000E+00
  0.00000000E+00  0.00000000E+00  0.00000000E+00
  0.00000000E+00  0.00000000E+00  0.00000000E+00
  0.00000000E+00  0.00000000E+00  0.00000000E+00
  0.00000000E+00  0.00000000E+00  0.00000000E+00
  0.00000000E+00  0.00000000E+00  0.00000000E+00
  0.00000000E+00  0.00000000E+00  0.00000000E+00
  0.00000000E+00  0.00000000E+00  0.00000000E+00
  0.00000000E+00  0.00000000E+00  0.00000000E+00
  0.00000000E+00  0.00000000E+00  0.00000000E+00
  0.00000000E+00  0.00000000E+00  0.00000000E+00
  0.00000000E+00  0.00000000E+00  0.00000000E+00
  0.00000000E+00  0.00000000E+00  0.00000000E+00
  0.00000000E+00  0.00000000E+00  0.00000000E+00
  0.00000000E+00  0.00000000E+00  0.00000000E+00
  0.00000000E+00  0.00000000E+00  0.00000000E+00
  0.00000000E+00  0.00000000E+00  0.00000000E+00
  0.00000000E+00  0.00000000E+00  0.00000000E+00
  0.00000000E+00  0.00000000E+00  0.00000000E+00
  0.00000000E+00  0.00000000E+00  0.00000000E+00
  0.00000000E+00  0.00000000E+00  0.00000000E+00
  0.00000000E+00  0.00000000E+00  0.00000000E+00
  0.00000000E+00  0.00000000E+00  0.00000000E+00
  0.00000000E+00  0.00000000E+00  0.00000000E+00
  0.00000000E+00  0.00000000E+00  0.00000000E+00
  0.00000000E+00  0.00000000E+00  0.00000000E+00
  0.00000000E+00  0.00000000E+00  0.00000000E+00
  0.00000000E+00  0.00000000E+00  0.00000000E+00
  0.00000000E+00  0.00000000E+00  0.00000000E+00
  0.00000000E+00  0.00000000E+00  0.00000000E+00
  0.00000000E+00  0.00000000E+00  0.00000000E+00
  0.00000000E+00  0.00000000E+00  0.00000000E+00
  0.00000000E+00  0.00000000E+00  0.00000000E+00
  0.00000000E+00  0.00000000E+00  0.00000000E+00
  0.00000000E+00  0.00000000E+00  0.00000000E+00
  0.00000000E+00  0.00000000E+00  0.00000000E+00
  0.00000000E+00  0.00000000E+00  0.00000000E+00
  0.00000000E+00  0.00000000E+00  0.00000000E+00
  0.00000000E+00  0.00000000E+00  0.00000000E+00
  0.00000000E+00  0.00000000E+00  0.00000000E+00
  0.00000000E+00  0.00000000E+00  0.00000000E+00
  0.00000000E+00  0.00000000E+00  0.00000000E+00
  0.00000000E+00  0.00000000E+00  0.00000000E+00
  0.00000000E+00  0.00000000E+00  0.00000000E+00
  0.00000000E+00  0.00000000E+00  0.00000000E+00
  0.00000000E+00  0.00000000E+00  0.00000000E+00
  0.00000000E+00  0.00000000E+00  0.00000000E+00
  0.00000000E+00  0.00000000E+00  0.00000000E+00
  0.00000000E+00  0.00000000E+00  0.00000000E+00
  0.00000000E+00  0.00000000E+00  0.00000000E+00
  0.00000000E+00  0.00000000E+00  0.00000000E+00
  0.00000000E+00  0.00000000E+00  0.00000000E+00
  0.00000000E+00  0.00000000E+00  0.00000000E+00
  0.00000000E+00  0.00000000E+00  0.00000000E+00
  0.00000000E+00  0.00000000E+00  0.00000000E+00
  0.00000000E+00  0.00000000E+00  0.00000000E+00
  0.00000000E+00  0.00000000E+00  0.00000000E+00
  0.00000000E+00  0.00000000E+00  0.00000000E+00
  0.00000000E+00  0.00000000E+00  0.00000000E+00
  0.00000000E+00  0.00000000E+00  0.00000000E+00
  0.00000000E+00  0.00000000E+00  0.00000000E+00
  0.00000000E+00  0.00000000E+00  0.00000000E+00
  0.00000000E+00  0.00000000E+00  0.00000000E+00
  0.00000000E+00  0.00000000E+00  0.00000000E+00
  0.00000000E+00  0.00000000E+00  0.00000000E+00
  0.00000000E+00  0.00000000E+00  0.00000000E+00
  0.00000000E+00  0.00000000E+00  0.00000000E+00
  0.00000000E+00  0.00000000E+00  0.00000000E+00
  0.00000000E+00  0.00000000E+00  0.00000000E+00
  0.00000000E+00  0.00000000E+00  0.00000000E+00
  0.00000000E+00  0.00000000E+00  0.00000000E+00
  0.00000000E+00  0.00000000E+00  0.00000000E+00
  0.00000000E+00  0.00000000E+00  0.00000000E+00
  0.00000000E+00  0.00000000E+00  0.00000000E+00
  0.00000000E+00  0.00000000E+00  0.00000000E+00
  0.00000000E+00  0.00000000E+00  0.00000000E+00
  0.00000000E+00  0.00000000E+00  0.00000000E+00
  0.00000000E+00  0.00000000E+00  0.00000000E+00
  0.00000000E+00  0.00000000E+00  0.00000000E+00
  0.00000000E+00  0.00000000E+00  0.00000000E+00
  0.00000000E+00  0.00000000E+00  0.00000000E+00
  0.00000000E+00  0.00000000E+00  0.00000000E+00
  0.00000000E+00  0.00000000E+00  0.00000000E+00
  0.00000000E+00  0.00000000E+00  0.00000000E+00
  0.00000000E+00  0.00000000E+00  0.00000000E+00
  0.00000000E+00  0.00000000E+00  0.00000000E+00
  0.00000000E+00  0.00000000E+00  0.00000000E+00
  0.00000000E+00  0.00000000E+00  0.00000000E+00
  0.00000000E+00  0.00000000E+00  0.00000000E+00
  0.00000000E+00  0.00000000E+00  0.00000000E+00
  0.00000000E+00  0.00000000E+00  0.00000000E+00
  0.00000000E+00  0.00000000E+00  0.00000000E+00
  0.00000000E+00  0.00000000E+00  0.00000000E+00
  0.00000000E+00  0.00000000E+00  0.00000000E+00
  0.00000000E+00  0.00000000E+00  0.00000000E+00
  0.00000000E+00  0.00000000E+00  0.00000000E+00
  0.00000000E+00  0.00000000E+00  0.00000000E+00
  0.00000000E+00  0.00000000E+00  0.00000000E+00
  0.00000000E+00  0.00000000E+00  0.00000000E+00
  0.00000000E+00  0.00000000E+00  0.00000000E+00
  0.00000000E+00  0.00000000E+00  0.00000000E+00
  0.00000000E+00  0.00000000E+00  0.00000000E+00
  0.00000000E+00  0.00000000E+00  0.00000000E+00
  0.00000000E+00  0.00000000E+00  0.00000000E+00
  0.00000000E+00  0.00000000E+00  0.00000000E+00
  0.00000000E+00  0.00000000E+00  0.00000000E+00
  0.00000000E+00  0.00000000E+00  0.00000000E+00
  0.00000000E+00  0.00000000E+00  0.00000000E+00
  0.00000000E+00  0.00000000E+00  0.00000000E+00
  0.00000000E+00  0.00000000E+00  0.00000000E+00
  0.00000000E+00  0.00000000E+00  0.00000000E+00
  0.00000000E+00  0.00000000E+00  0.00000000E+00
  0.00000000E+00  0.00000000E+00  0.00000000E+00
  0.00000000E+00  0.00000000E+00  0.00000000E+00
  0.00000000E+00  0.00000000E+00  0.00000000E+00
  0.00000000E+00  0.00000000E+00  0.00000000E+00
  0.00000000E+00  0.00000000E+00  0.00000000E+00
  0.00000000E+00  0.00000000E+00  0.00000000E+00
  0.00000000E+00  0.00000000E+00  0.00000000E+00
  0.00000000E+00  0.00000000E+00  0.00000000E+00
  0.00000000E+00  0.00000000E+00  0.00000000E+00
  0.00000000E+00  0.00000000E+00  0.00000000E+00
  0.00000000E+00  0.00000000E+00  0.00000000E+00
  0.00000000E+00  0.00000000E+00  0.00000000E+00
  0.00000000E+00  0.00000000E+00  0.00000000E+00
  0.00000000E+00  0.00000000E+00  0.00000000E+00
  0.00000000E+00  0.00000000E+00  0.00000000E+00
  0.00000000E+00  0.00000000E+00  0.00000000E+00
  0.00000000E+00  0.00000000E+00  0.00000000E+00
  0.00000000E+00  0.00000000E+00  0.00000000E+00
  0.00000000E+00  0.00000000E+00  0.00000000E+00
  0.00000000E+00  0.00000000E+00  0.00000000E+00
  0.00000000E+00  0.00000000E+00  0.00000000E+00
  0.00000000E+00  0.00000000E+00  0.00000000E+00
  0.00000000E+00  0.00000000E+00  0.00000000E+00
  0.00000000E+00  0.00000000E+00  0.00000000E+00
  0.00000000E+00  0.00000000E+00  0.00000000E+00
  0.00000000E+00  0.00000000E+00  0.00000000E+00
  0.00000000E+00  0.00000000E+00  0.00000000E+00
  0.00000000E+00  0.00000000E+00  0.00000000E+00
  0.00000000E+00  0.00000000E+00  0.00000000E+00
  0.00000000E+00  0.00000000E+00  0.00000000E+00
  0.00000000E+00  0.00000000E+00  0.00000000E+00
  0.00000000E+00  0.00000000E+00  0.00000000E+00
  0.00000000E+00  0.00000000E+00  0.00000000E+00
  0.00000000E+00  0.00000000E+00  0.00000000E+00
  0.00000000E+00  0.00000000E+00  0.00000000E+00
  0.00000000E+00  0.00000000E+00  0.00000000E+00
  0.00000000E+00  0.00000000E+00  0.00000000E+00
  0.00000000E+00  0.00000000E+00  0.00000000E+00
