FeH_8                                   
   1.00000000000000     
     8.1160719596456836    0.0048356421037230   -0.0137937152944001
     0.0176638377249300   32.7561256847342150    3.1782254801256205
    -0.0084441055119614    0.7262902667943603    5.8568463407768903
   C    Fe   H    N    O 
    80     4    32    24    16
Direct
  0.7395342366488222  0.9508213857721444  0.9971056151674773
  0.8879129022046897  0.9534871432854359  0.3129972797900038
  0.7262648373412190  0.7994933035518343  0.8379582372417858
  0.7593659393839545  0.4507109779744880  0.4976447645517439
  0.6250599898472728  0.2955433097786084  0.0244915940275519
  0.1120012097340606  0.7942990984657285  0.0298917061199475
  0.6107493183048689  0.4534916994383735  0.8119416845929734
  0.7729993834140387  0.2994651565808937  0.3388629554239628
  0.3734221676757912  0.4523738657225991  0.3143497327216025
  0.2605344397162597  0.7969578513100259  0.3456814971381448
  0.1254130580840211  0.9522175218549336  0.8172908638141081
  0.3872995738447571  0.2943491410260961  0.5274859775081779
  0.8745445435207273  0.7955033101227116  0.5251569645176346
  0.2735456980787276  0.9482125665782561  0.5043570452041664
  0.2389980120071016  0.2971195978424177  0.8421262803358331
  0.2255541328804966  0.4485423137674331  0.9997350692433145
  0.6929871469240183  0.0294768226707376  0.3338835407321383
  0.8455435528487669  0.0479477111608659  0.9581371964341159
  0.8227879297421694  0.7018762809519217  0.8789927153132595
  0.6533067180688619  0.5479434673027370  0.4573161898340814
  0.6766800825068273  0.2019297951235828  0.3790171307875312
  0.3069087288613801  0.7184164900806991  0.0084029201012115
  0.8052069629086986  0.5293459172981514  0.8349400458865759
  0.8287237488979571  0.2205881305676343  0.0030261960872053
  0.1701592226670385  0.5273137727372870  0.3360786584696740
  0.1537449398879929  0.6998097260072598  0.3835979434278158
  0.1766808687564634  0.0458218982702547  0.4626209383782580
  0.3455668836222117  0.1999109867571320  0.8830434504030791
  0.6713162123180254  0.7206678029997562  0.5012419264415229
  0.3282648147298772  0.0271198906161132  0.8404751193565048
  0.1935173957000913  0.2183902938441236  0.5055944380065043
  0.3225079943793858  0.5461184696613799  0.9603344927305173
  0.6981178579825738  0.0734741226998494  0.3463602522118592
  0.8366898214360603  0.0919557194713576  0.9698736316337815
  0.8128113961220507  0.6578673238734680  0.8672510543884329
  0.6622469954413788  0.5919678101547561  0.4690758721673305
  0.6865022507234784  0.1579469500661403  0.3672173621135144
  0.3013405929836281  0.6744751265975779  0.9949801786729182
  0.8002442711843258  0.5733608619297854  0.8471889253078828
  0.8250250010074680  0.1765255713033298  0.9909108559866837
  0.1740750909686994  0.5713340505018039  0.3489578186738385
  0.1625218440469993  0.6558377594179348  0.3711927281487277
  0.1864828688974711  0.0898292197576112  0.4741260461097809
  0.3367816029162753  0.1558649550496654  0.8716892813085053
  0.6748739521506977  0.6765782258583357  0.4893458462035412
  0.3245662355674170  0.0712151015187104  0.8520587062264084
  0.1987074029438176  0.1743539428972909  0.4937240754586583
  0.3127456024685529  0.5900631013341595  0.9727575658703884
  0.6281686235141777  0.0855585331802331  0.5346514737345416
  0.9017330802958625  0.1224689663562231  0.7925848543161393
  0.8772521022465867  0.6273500624794934  0.0456392822989429
  0.5978325286826944  0.6225377422384994  0.2908041379768846
  0.6215687516840731  0.1274848591943041  0.5446901633630574
  0.3711821871730407  0.6624901659731890  0.8063103055034588
  0.8698819854651205  0.5853950692435959  0.0362036031526998
  0.8948149775043888  0.1644111282744589  0.8024513961329731
  0.1041768221095296  0.5833696060685583  0.5376080556980014
  0.0972831999964114  0.6252800353751269  0.5481074222951392
  0.1220208720570213  0.1203084750462793  0.2955524608958697
  0.4014489395193053  0.1253516535037065  0.0500781757402038
  0.6055183544207878  0.6645110477705956  0.3001051503439385
  0.3939373738662297  0.0833618916814771  0.0410798807780353
  0.1291493439862492  0.1622730201726696  0.3048225957366952
  0.3776765956184605  0.6205980264367597  0.7956157533735464
  0.7861941618028325  0.9769046925988860  0.1435008834462934
  0.7689902739429186  0.7730672063457931  0.6916357413696801
  0.7124541060380665  0.4768425334136523  0.6434573033910524
  0.7306338306362719  0.2730596059134314  0.1921082856490699
  0.2137256873845033  0.7708778341660860  0.1993545751366028
  0.2682293609855790  0.4749310951887011  0.1464631413318571
  0.2307627222254212  0.9746593942057444  0.6505201304239563
  0.2859727869271467  0.2709789908141289  0.6964480846016201
  0.7641975768624363  0.1036156885862027  0.1629202769044866
  0.7402981157351576  0.6462988146061193  0.6735682944595993
  0.7347195224706908  0.6035737720941583  0.6627662752553931
  0.7590120886658340  0.1463304332836159  0.1741129295879986
  0.2351056316694766  0.6442653935410760  0.1779638466681419
  0.2402577800250896  0.6015789715394035  0.1661477789046941
  0.2589160813423845  0.1014351206430248  0.6677349141409934
  0.2643678851586060  0.1441763632404403  0.6782449003053088
  0.9312160114908536  0.8742028380725841  0.9194130833319392
  0.0686836240808049  0.8735424899497062  0.4232690551797305
  0.5675570370978775  0.3742132159101743  0.4183425934636773
  0.4302844241130117  0.3736578584013657  0.9207357893305783
  0.4520566219975635  0.1347853426297547  0.2004576024227021
  0.9150108549634055  0.5611808727061742  0.1776440493621507
  0.9397041541748408  0.1886205683586866  0.6613324025473020
  0.5821512275211731  0.0613865111822065  0.6750415490683963
  0.5616463039358663  0.6887534817070033  0.1578201762168803
  0.5472638783672039  0.6131576431067387  0.1402252932178598
  0.0465388521632804  0.6346546066154843  0.6982571014036481
  0.0714453125791081  0.1108464339723128  0.1453009539563723
  0.9279951390603358  0.6367712261504579  0.1959130473632626
  0.0840122261237752  0.1864530421968453  0.1631979145250284
  0.0589727421560085  0.5591174929428888  0.6782655105875008
  0.4172254547241678  0.6867246182500040  0.6662579483042492
  0.4281986010030465  0.6112055697825696  0.6454593093060410
  0.5709184802331038  0.1369584380818623  0.6945549104547837
  0.9523081696598084  0.1130336947989932  0.6425139101042916
  0.4380276035694521  0.0591635326812749  0.1834335383414043
  0.5487921559788589  0.4632213314011935  0.9533855633147326
  0.4491574042269164  0.2846353036345945  0.3858840791890117
  0.1491401884474470  0.4545010098334146  0.8446725004735640
  0.3363749123742963  0.7904354241470841  0.5011664229924548
  0.0648812241556627  0.9624664628085497  0.9582197323446522
  0.1632840449506219  0.2906527654130997  0.9970148449909004
  0.6637559990982069  0.9573337716167671  0.8415500356325296
  0.9350816659092445  0.7852665074094958  0.3842029391055277
  0.3501848815101525  0.9540750395549438  0.3502602501351504
  0.8353077638678954  0.4571484529459582  0.3429601140873757
  0.5647581058416549  0.2853472975707447  0.8828285125301392
  0.9497015527620576  0.9631398407107881  0.4552423926338065
  0.8495240985405914  0.2935690477675834  0.4938029108449555
  0.4338033211789707  0.4625448780521140  0.4560505101263601
  0.0501281758882115  0.7846388586577717  0.8876985956836378
  0.6495636921012604  0.7936159873905950  0.9920031403547327
  0.8128307863307711  0.9133262884648730  0.0760333724193671
  0.9046547244030592  0.9154976229817748  0.2693605983262799
  0.8054718127874310  0.8362110650265464  0.7617702403238695
  0.6861522381054144  0.4132650777817446  0.5758810404062089
  0.6021553854706241  0.3332622103657528  0.0694092656867440
  0.0954150611736964  0.8322969303550494  0.0734293706501603
  0.5942033318795339  0.4155060246897690  0.7682500658726426
  0.6936049870044414  0.3362172875675711  0.2618113155785977
  0.3959122185213388  0.4146348075621802  0.2695511606730818
  0.1873114727462948  0.8344651126503919  0.2667058150777777
  0.1029639588246738  0.9144887032011511  0.7723663971588124
  0.4035610135925367  0.3323682983912875  0.5708242729023851
  0.8971054836304120  0.8332130900403101  0.5703180345765162
  0.1945381839431946  0.9114773627185997  0.5808926100047884
  0.3117918573740397  0.3346045323923335  0.7633784941493005
  0.3044998034322646  0.4117311058301070  0.0770251782492295
  0.7597644146923557  0.0197454130139221  0.1323561845797201
  0.7386667351203329  0.7303421672595007  0.7032436188612223
  0.7387040107457494  0.5196673558943132  0.6326352606217114
  0.7611502077785275  0.2303134831732621  0.2042611464248978
  0.2400131985841725  0.7280447105641272  0.2101194565697284
  0.2378946685950964  0.5176769342710870  0.1346810506838878
  0.2608709344715976  0.0174008224834168  0.6385621116769187
  0.2600242628579892  0.2281373958828752  0.7076765116501491
  0.6304237606388483  0.0023610793136015  0.4864611891219397
  0.9205710362770390  0.0355718715427287  0.8049162701991648
  0.8980704346446018  0.7139397533322054  0.0334838301147968
  0.5788116361273410  0.5356487842133646  0.3029489157546621
  0.6009399608557686  0.2140787996242821  0.5324013435081483
  0.3698092216196116  0.7455830479947423  0.8564121161244316
  0.8677066315068558  0.5021817852958605  0.9881192018076561
  0.8897965562460044  0.2478274923593773  0.8497593972834707
  0.1089375935279477  0.5000208967969115  0.4889298129463455
  0.0784388383394017  0.7121298253804085  0.5367704189932780
  0.1014116111084320  0.0337479831003904  0.3081397806405519
  0.4201864642455249  0.2122417707262940  0.0371966813767983
  0.6103123295820652  0.7479553223903466  0.3473779805451116
  0.3891808174589926  0.9998578640366347  0.9945695482105279
  0.1309453111527930  0.2455162594455160  0.3522661257407620
  0.3982971089436447  0.5340533473213256  0.8067129397402937
 
  0.00000000E+00  0.00000000E+00  0.00000000E+00
  0.00000000E+00  0.00000000E+00  0.00000000E+00
  0.00000000E+00  0.00000000E+00  0.00000000E+00
  0.00000000E+00  0.00000000E+00  0.00000000E+00
  0.00000000E+00  0.00000000E+00  0.00000000E+00
  0.00000000E+00  0.00000000E+00  0.00000000E+00
  0.00000000E+00  0.00000000E+00  0.00000000E+00
  0.00000000E+00  0.00000000E+00  0.00000000E+00
  0.00000000E+00  0.00000000E+00  0.00000000E+00
  0.00000000E+00  0.00000000E+00  0.00000000E+00
  0.00000000E+00  0.00000000E+00  0.00000000E+00
  0.00000000E+00  0.00000000E+00  0.00000000E+00
  0.00000000E+00  0.00000000E+00  0.00000000E+00
  0.00000000E+00  0.00000000E+00  0.00000000E+00
  0.00000000E+00  0.00000000E+00  0.00000000E+00
  0.00000000E+00  0.00000000E+00  0.00000000E+00
  0.00000000E+00  0.00000000E+00  0.00000000E+00
  0.00000000E+00  0.00000000E+00  0.00000000E+00
  0.00000000E+00  0.00000000E+00  0.00000000E+00
  0.00000000E+00  0.00000000E+00  0.00000000E+00
  0.00000000E+00  0.00000000E+00  0.00000000E+00
  0.00000000E+00  0.00000000E+00  0.00000000E+00
  0.00000000E+00  0.00000000E+00  0.00000000E+00
  0.00000000E+00  0.00000000E+00  0.00000000E+00
  0.00000000E+00  0.00000000E+00  0.00000000E+00
  0.00000000E+00  0.00000000E+00  0.00000000E+00
  0.00000000E+00  0.00000000E+00  0.00000000E+00
  0.00000000E+00  0.00000000E+00  0.00000000E+00
  0.00000000E+00  0.00000000E+00  0.00000000E+00
  0.00000000E+00  0.00000000E+00  0.00000000E+00
  0.00000000E+00  0.00000000E+00  0.00000000E+00
  0.00000000E+00  0.00000000E+00  0.00000000E+00
  0.00000000E+00  0.00000000E+00  0.00000000E+00
  0.00000000E+00  0.00000000E+00  0.00000000E+00
  0.00000000E+00  0.00000000E+00  0.00000000E+00
  0.00000000E+00  0.00000000E+00  0.00000000E+00
  0.00000000E+00  0.00000000E+00  0.00000000E+00
  0.00000000E+00  0.00000000E+00  0.00000000E+00
  0.00000000E+00  0.00000000E+00  0.00000000E+00
  0.00000000E+00  0.00000000E+00  0.00000000E+00
  0.00000000E+00  0.00000000E+00  0.00000000E+00
  0.00000000E+00  0.00000000E+00  0.00000000E+00
  0.00000000E+00  0.00000000E+00  0.00000000E+00
  0.00000000E+00  0.00000000E+00  0.00000000E+00
  0.00000000E+00  0.00000000E+00  0.00000000E+00
  0.00000000E+00  0.00000000E+00  0.00000000E+00
  0.00000000E+00  0.00000000E+00  0.00000000E+00
  0.00000000E+00  0.00000000E+00  0.00000000E+00
  0.00000000E+00  0.00000000E+00  0.00000000E+00
  0.00000000E+00  0.00000000E+00  0.00000000E+00
  0.00000000E+00  0.00000000E+00  0.00000000E+00
  0.00000000E+00  0.00000000E+00  0.00000000E+00
  0.00000000E+00  0.00000000E+00  0.00000000E+00
  0.00000000E+00  0.00000000E+00  0.00000000E+00
  0.00000000E+00  0.00000000E+00  0.00000000E+00
  0.00000000E+00  0.00000000E+00  0.00000000E+00
  0.00000000E+00  0.00000000E+00  0.00000000E+00
  0.00000000E+00  0.00000000E+00  0.00000000E+00
  0.00000000E+00  0.00000000E+00  0.00000000E+00
  0.00000000E+00  0.00000000E+00  0.00000000E+00
  0.00000000E+00  0.00000000E+00  0.00000000E+00
  0.00000000E+00  0.00000000E+00  0.00000000E+00
  0.00000000E+00  0.00000000E+00  0.00000000E+00
  0.00000000E+00  0.00000000E+00  0.00000000E+00
  0.00000000E+00  0.00000000E+00  0.00000000E+00
  0.00000000E+00  0.00000000E+00  0.00000000E+00
  0.00000000E+00  0.00000000E+00  0.00000000E+00
  0.00000000E+00  0.00000000E+00  0.00000000E+00
  0.00000000E+00  0.00000000E+00  0.00000000E+00
  0.00000000E+00  0.00000000E+00  0.00000000E+00
  0.00000000E+00  0.00000000E+00  0.00000000E+00
  0.00000000E+00  0.00000000E+00  0.00000000E+00
  0.00000000E+00  0.00000000E+00  0.00000000E+00
  0.00000000E+00  0.00000000E+00  0.00000000E+00
  0.00000000E+00  0.00000000E+00  0.00000000E+00
  0.00000000E+00  0.00000000E+00  0.00000000E+00
  0.00000000E+00  0.00000000E+00  0.00000000E+00
  0.00000000E+00  0.00000000E+00  0.00000000E+00
  0.00000000E+00  0.00000000E+00  0.00000000E+00
  0.00000000E+00  0.00000000E+00  0.00000000E+00
  0.00000000E+00  0.00000000E+00  0.00000000E+00
  0.00000000E+00  0.00000000E+00  0.00000000E+00
  0.00000000E+00  0.00000000E+00  0.00000000E+00
  0.00000000E+00  0.00000000E+00  0.00000000E+00
  0.00000000E+00  0.00000000E+00  0.00000000E+00
  0.00000000E+00  0.00000000E+00  0.00000000E+00
  0.00000000E+00  0.00000000E+00  0.00000000E+00
  0.00000000E+00  0.00000000E+00  0.00000000E+00
  0.00000000E+00  0.00000000E+00  0.00000000E+00
  0.00000000E+00  0.00000000E+00  0.00000000E+00
  0.00000000E+00  0.00000000E+00  0.00000000E+00
  0.00000000E+00  0.00000000E+00  0.00000000E+00
  0.00000000E+00  0.00000000E+00  0.00000000E+00
  0.00000000E+00  0.00000000E+00  0.00000000E+00
  0.00000000E+00  0.00000000E+00  0.00000000E+00
  0.00000000E+00  0.00000000E+00  0.00000000E+00
  0.00000000E+00  0.00000000E+00  0.00000000E+00
  0.00000000E+00  0.00000000E+00  0.00000000E+00
  0.00000000E+00  0.00000000E+00  0.00000000E+00
  0.00000000E+00  0.00000000E+00  0.00000000E+00
  0.00000000E+00  0.00000000E+00  0.00000000E+00
  0.00000000E+00  0.00000000E+00  0.00000000E+00
  0.00000000E+00  0.00000000E+00  0.00000000E+00
  0.00000000E+00  0.00000000E+00  0.00000000E+00
  0.00000000E+00  0.00000000E+00  0.00000000E+00
  0.00000000E+00  0.00000000E+00  0.00000000E+00
  0.00000000E+00  0.00000000E+00  0.00000000E+00
  0.00000000E+00  0.00000000E+00  0.00000000E+00
  0.00000000E+00  0.00000000E+00  0.00000000E+00
  0.00000000E+00  0.00000000E+00  0.00000000E+00
  0.00000000E+00  0.00000000E+00  0.00000000E+00
  0.00000000E+00  0.00000000E+00  0.00000000E+00
  0.00000000E+00  0.00000000E+00  0.00000000E+00
  0.00000000E+00  0.00000000E+00  0.00000000E+00
  0.00000000E+00  0.00000000E+00  0.00000000E+00
  0.00000000E+00  0.00000000E+00  0.00000000E+00
  0.00000000E+00  0.00000000E+00  0.00000000E+00
  0.00000000E+00  0.00000000E+00  0.00000000E+00
  0.00000000E+00  0.00000000E+00  0.00000000E+00
  0.00000000E+00  0.00000000E+00  0.00000000E+00
  0.00000000E+00  0.00000000E+00  0.00000000E+00
  0.00000000E+00  0.00000000E+00  0.00000000E+00
  0.00000000E+00  0.00000000E+00  0.00000000E+00
  0.00000000E+00  0.00000000E+00  0.00000000E+00
  0.00000000E+00  0.00000000E+00  0.00000000E+00
  0.00000000E+00  0.00000000E+00  0.00000000E+00
  0.00000000E+00  0.00000000E+00  0.00000000E+00
  0.00000000E+00  0.00000000E+00  0.00000000E+00
  0.00000000E+00  0.00000000E+00  0.00000000E+00
  0.00000000E+00  0.00000000E+00  0.00000000E+00
  0.00000000E+00  0.00000000E+00  0.00000000E+00
  0.00000000E+00  0.00000000E+00  0.00000000E+00
  0.00000000E+00  0.00000000E+00  0.00000000E+00
  0.00000000E+00  0.00000000E+00  0.00000000E+00
  0.00000000E+00  0.00000000E+00  0.00000000E+00
  0.00000000E+00  0.00000000E+00  0.00000000E+00
  0.00000000E+00  0.00000000E+00  0.00000000E+00
  0.00000000E+00  0.00000000E+00  0.00000000E+00
  0.00000000E+00  0.00000000E+00  0.00000000E+00
  0.00000000E+00  0.00000000E+00  0.00000000E+00
  0.00000000E+00  0.00000000E+00  0.00000000E+00
  0.00000000E+00  0.00000000E+00  0.00000000E+00
  0.00000000E+00  0.00000000E+00  0.00000000E+00
  0.00000000E+00  0.00000000E+00  0.00000000E+00
  0.00000000E+00  0.00000000E+00  0.00000000E+00
  0.00000000E+00  0.00000000E+00  0.00000000E+00
  0.00000000E+00  0.00000000E+00  0.00000000E+00
  0.00000000E+00  0.00000000E+00  0.00000000E+00
  0.00000000E+00  0.00000000E+00  0.00000000E+00
  0.00000000E+00  0.00000000E+00  0.00000000E+00
  0.00000000E+00  0.00000000E+00  0.00000000E+00
  0.00000000E+00  0.00000000E+00  0.00000000E+00
  0.00000000E+00  0.00000000E+00  0.00000000E+00
  0.00000000E+00  0.00000000E+00  0.00000000E+00
  0.00000000E+00  0.00000000E+00  0.00000000E+00
  0.00000000E+00  0.00000000E+00  0.00000000E+00
