Zn_H                                    
   1.00000000000000     
    17.4820869045895080   -0.0015933350853278   -0.0012603904260199
     0.0013797448447889   29.9959112762119879   -3.9636627743543258
     0.0003664983249726   -0.7814966529529341    6.2789888194486103
   C    Zn   H    N    O 
    80     4    32    24    16
Direct
  0.9369350953354640  0.9631936495964055  0.1440425230221152
  0.8649777246798678  0.9521466707859361  0.4173379911120776
  0.9373470570793501  0.7926997155214934  0.9017061586715158
  0.5627001059518619  0.4631632089059892  0.6436423500298005
  0.6344242854786089  0.3037488780023949  0.1282447286164370
  0.1344343450201677  0.8037727511964547  0.1285929821417326
  0.6347227586340551  0.4520557103515301  0.9166696871186417
  0.5624645934500236  0.2927270958071091  0.4015603413301179
  0.3649653669337525  0.4520894692718045  0.4166833213372954
  0.0624544174083326  0.7927412015624995  0.4018417968858614
  0.1346821130802809  0.9520895620100589  0.9170161683542517
  0.3652278317286530  0.3036996226873114  0.6282065397942418
  0.8652928718524109  0.8037008679939532  0.6285268414396512
  0.0627340565268710  0.9631529844760323  0.6437725835572010
  0.4372932981893882  0.2926944799959657  0.9013531955064664
  0.4368796504600851  0.4631244810897286  0.1433124295101038
  0.7938106091657602  0.0240935617346665  0.0975294238150681
  0.8493449028776041  0.0607597824995381  0.4668306240064908
  0.8500462573232426  0.6950235379301972  0.5784981012447048
  0.6503590097642160  0.5606782449205312  0.9662787373042789
  0.6499159130304335  0.1951114836530294  0.0784338075251938
  0.2053306763365512  0.7316791844301562  0.4477128264110064
  0.7059876233001745  0.5240142106529646  0.5970892928851939
  0.7052614093285641  0.2317059940468837  0.4480920120761738
  0.2937447362687777  0.5240404643831909  0.0966575699405325
  0.1498174328555564  0.6951031720116063  0.0782461090960851
  0.1502997967998354  0.0606978096647097  0.9660511861539760
  0.3499863877197171  0.1950156062186323  0.5781022269857132
  0.7946249793650537  0.7316142446933185  0.9480675041687405
  0.2059657280907103  0.0240057399330382  0.5969399626207803
  0.2945022824300949  0.2316292022872943  0.9475427524681592
  0.3493747077330056  0.5606844087424321  0.4658480436635699
  0.7565613503609470  0.0681131672978736  0.0975668632652784
  0.8125022781740157  0.1043457222771380  0.4573030285999877
  0.8132361716808703  0.6514187704482381  0.5879858241856866
  0.6872954564254314  0.6042555238570841  0.9569806117152666
  0.6866760747740130  0.1515000027749451  0.0880680096955402
  0.2425929285837327  0.6876492536439898  0.4474439432148074
  0.7432465412597224  0.5680435306662588  0.5972398974493487
  0.7425728811161250  0.1876998495978697  0.4479111490423904
  0.2565948860417109  0.5680958433980052  0.0967029315489043
  0.1866862102510538  0.6515013949507136  0.0875215537282585
  0.1872055374196790  0.1042751201314829  0.9566369682066735
  0.3130834253637786  0.1514300671144824  0.5874575177917478
  0.7573362256307234  0.6875978863024699  0.9478523089115072
  0.2431347208699037  0.0680504467589458  0.5968430823459769
  0.2571988891129138  0.1876185318453096  0.9473464849917903
  0.3125053162752280  0.6042739377497313  0.4565285331446560
  0.7114572181579817  0.0713625346842193  0.9213075385434024
  0.8225550853718104  0.1429242166539240  0.6288361637468824
  0.8232794288719134  0.6128420283959528  0.4164504173278303
  0.6773294272215651  0.6428096643135248  0.1286898280456867
  0.6766132319821452  0.1129140256696246  0.9165956548797993
  0.2876026419896647  0.6843613099572892  0.6238340633583661
  0.7883835681847344  0.5712982779095199  0.4210493036120582
  0.7876639565789176  0.1844631363099012  0.6242217500884166
  0.2115016490769790  0.5713796292401767  0.9204876762744476
  0.1766381737672873  0.6129368073706232  0.9159340871812063
  0.1772538534104839  0.1428318858302902  0.1283458004546318
  0.3231314564465606  0.1128493825481769  0.4159494572453823
  0.7122767556584364  0.6843424106610598  0.1241881500577335
  0.2882423159716367  0.0713039379677411  0.4205843345588534
  0.2121910051032714  0.1843623988142724  0.1237823750940805
  0.3224897346778732  0.6428150717060674  0.6283000063409574
  0.8768059738961753  0.9818661836844100  0.2833887272018600
  0.8773109736420324  0.7739454660866016  0.7621683862598374
  0.6229043377469097  0.4817911013726857  0.7828069352172378
  0.6225266669882288  0.2740111334618334  0.2620493301750457
  0.1224755516992388  0.7740044661639445  0.2622114627689314
  0.3767194784377992  0.4817816295780659  0.2825750870579924
  0.1229380870480270  0.9817871369193014  0.7829207606359674
  0.3772649921438287  0.2739370365444103  0.7617934426998687
  0.7672449050453238  0.1068137914379363  0.2751061155384207
  0.7679633002466701  0.6489264380967725  0.7701501707538299
  0.7325720321712907  0.6067346816432391  0.7748363480108793
  0.7319126494092743  0.1490133987086608  0.2703005905243927
  0.2319497406274706  0.6489885856208559  0.2696727618881951
  0.2672832969538348  0.6067796194449997  0.2743323002799158
  0.2324347085642557  0.1067516994075106  0.7743913678278105
  0.2677928234544780  0.1489476072247484  0.7696070037342295
  0.0352132010194524  0.8780362511205055  0.0233360969800529
  0.9643764867214486  0.8779955303525284  0.5230747232374284
  0.4643692942953805  0.3779828777687158  0.5227857136053089
  0.5352507608445620  0.3779903367426911  0.0227345822897007
  0.3583444856024087  0.1158150099950745  0.2780395328191148
  0.7955706929605952  0.5409332937484237  0.2867729541924078
  0.7948045402100590  0.2148212244458136  0.7585529701509586
  0.7042701225355543  0.0410008575597658  0.7870191367765003
  0.7051954035343542  0.7146918432393150  0.2586213216797617
  0.6421586276589366  0.6398266781399684  0.2666564983111996
  0.1414518319057265  0.6159133062681903  0.7779988177138577
  0.1420976363491278  0.1398497862563346  0.2663282263865483
  0.8584884188137210  0.6158000901267897  0.2785282209723476
  0.2051739340506771  0.2147050092611522  0.2582764795787895
  0.2042803297479381  0.5410264237414637  0.7861518149261784
  0.2946632051369562  0.7146894511347952  0.7583718333057945
  0.3576269602626567  0.6398034358863427  0.7662736814287712
  0.6414444667202375  0.1158735243188147  0.7786063780159580
  0.8577613750166293  0.1399462295948624  0.7667292710869233
  0.2954325377996057  0.0409446486182361  0.2862798508454958
  0.6738439527481432  0.4545857623044469  0.0526287830928780
  0.3261524712090065  0.3011071774453526  0.4920945780540222
  0.4635346451924747  0.4754675279400260  0.0143015931070423
  0.0357234218961864  0.7803849860811738  0.5307011500624554
  0.1737600363299094  0.9546299690578053  0.0530817660124470
  0.4640661086894724  0.2803474411798703  0.0301772825238302
  0.9636177244529733  0.9755310131792854  0.0150621246438618
  0.8262338609204747  0.8010968510980518  0.4923787703322233
  0.0360391341059767  0.9755196485749025  0.5148941631448523
  0.5359817900013297  0.4755334307673920  0.5148167649333999
  0.6734610647545409  0.3011800068875061  0.9920784685252784
  0.8258910919352402  0.9546954000940673  0.5534053388017739
  0.5357583483717576  0.2803599386252174  0.5304262782003235
  0.3259005020189605  0.4546442167510278  0.5527880232908586
  0.1734874503108443  0.8011928592465694  0.9924396752976463
  0.9641153236646574  0.7803320670008631  0.0304814906845650
  0.9597082140041948  0.9244309519998879  0.1917587141208372
  0.9151405897303277  0.9173310586064005  0.3578925540455984
  0.9598921760678749  0.8315433332115205  0.8543925000465720
  0.5398825616581746  0.4244069755020732  0.6913508786287608
  0.5843744486944331  0.3386171642199898  0.1879470149988265
  0.0844497133468138  0.8386728405886785  0.1884648861235263
  0.5844947017411926  0.4172734753670326  0.8573386200515216
  0.5397968627773437  0.3315329765011867  0.3540963342570365
  0.4151828331802037  0.4172998083337731  0.3573713401460381
  0.0398626672755071  0.8315781505975082  0.3545721206838337
  0.0844213268665825  0.9173192325255073  0.8577816339388988
  0.4151884971718189  0.3386195410719566  0.6880192838199548
  0.9152615294120352  0.8386154936241681  0.6883103735116336
  0.0398558008268850  0.9244262364180287  0.6916708676672414
  0.4598205491625365  0.3315417770632294  0.8540579119672813
  0.4597297391545894  0.4243914783048908  0.1911817446778841
  0.8376729547753712  0.0231764391191618  0.2845934143671016
  0.8383381295304488  0.7325799443994256  0.7608144314786855
  0.6620955315464343  0.5230901459144519  0.7840745762116086
  0.6615773641720608  0.2326717429438503  0.2607671716838098
  0.1615026088642892  0.7326460033926097  0.2606741928771257
  0.3375768425885681  0.5230891799067052  0.2837275178022693
  0.1621152167177513  0.0230852581497416  0.7840279854421368
  0.3382669861796685  0.2325778654627157  0.7603796454258571
  0.7873650087155966  0.9899275280637809  0.9450427712598923
  0.8880817858384020  0.0569097487544283  0.6232298329660608
  0.8887448562483584  0.6989192470846533  0.4221011420334619
  0.6114794432196931  0.5568307098695229  0.1224162928186132
  0.6112627718209183  0.1989997581170684  0.9219446123974251
  0.2117341348923887  0.7658166419100851  0.6003670194048922
  0.7124434832277515  0.4898591473257881  0.4445429678616009
  0.7115103396152236  0.2658269325007439  0.6009005250949144
  0.2872400022016066  0.4898835427637565  0.9441344867401114
  0.1110704865584609  0.6990029850492547  0.9219485505570972
  0.1113863972179985  0.0568727617629534  0.1221641705544201
  0.3887894071026778  0.1988863695541880  0.4218604103811430
  0.7883218017641909  0.7657447337897452  0.1008042441059374
  0.2124735957129360  0.9898363930402709  0.4445097107787674
  0.2881891346178662  0.2657721221644564  0.1002106411308574
  0.3882493717162987  0.5568389259832713  0.6219952889102771
 
  0.00000000E+00  0.00000000E+00  0.00000000E+00
  0.00000000E+00  0.00000000E+00  0.00000000E+00
  0.00000000E+00  0.00000000E+00  0.00000000E+00
  0.00000000E+00  0.00000000E+00  0.00000000E+00
  0.00000000E+00  0.00000000E+00  0.00000000E+00
  0.00000000E+00  0.00000000E+00  0.00000000E+00
  0.00000000E+00  0.00000000E+00  0.00000000E+00
  0.00000000E+00  0.00000000E+00  0.00000000E+00
  0.00000000E+00  0.00000000E+00  0.00000000E+00
  0.00000000E+00  0.00000000E+00  0.00000000E+00
  0.00000000E+00  0.00000000E+00  0.00000000E+00
  0.00000000E+00  0.00000000E+00  0.00000000E+00
  0.00000000E+00  0.00000000E+00  0.00000000E+00
  0.00000000E+00  0.00000000E+00  0.00000000E+00
  0.00000000E+00  0.00000000E+00  0.00000000E+00
  0.00000000E+00  0.00000000E+00  0.00000000E+00
  0.00000000E+00  0.00000000E+00  0.00000000E+00
  0.00000000E+00  0.00000000E+00  0.00000000E+00
  0.00000000E+00  0.00000000E+00  0.00000000E+00
  0.00000000E+00  0.00000000E+00  0.00000000E+00
  0.00000000E+00  0.00000000E+00  0.00000000E+00
  0.00000000E+00  0.00000000E+00  0.00000000E+00
  0.00000000E+00  0.00000000E+00  0.00000000E+00
  0.00000000E+00  0.00000000E+00  0.00000000E+00
  0.00000000E+00  0.00000000E+00  0.00000000E+00
  0.00000000E+00  0.00000000E+00  0.00000000E+00
  0.00000000E+00  0.00000000E+00  0.00000000E+00
  0.00000000E+00  0.00000000E+00  0.00000000E+00
  0.00000000E+00  0.00000000E+00  0.00000000E+00
  0.00000000E+00  0.00000000E+00  0.00000000E+00
  0.00000000E+00  0.00000000E+00  0.00000000E+00
  0.00000000E+00  0.00000000E+00  0.00000000E+00
  0.00000000E+00  0.00000000E+00  0.00000000E+00
  0.00000000E+00  0.00000000E+00  0.00000000E+00
  0.00000000E+00  0.00000000E+00  0.00000000E+00
  0.00000000E+00  0.00000000E+00  0.00000000E+00
  0.00000000E+00  0.00000000E+00  0.00000000E+00
  0.00000000E+00  0.00000000E+00  0.00000000E+00
  0.00000000E+00  0.00000000E+00  0.00000000E+00
  0.00000000E+00  0.00000000E+00  0.00000000E+00
  0.00000000E+00  0.00000000E+00  0.00000000E+00
  0.00000000E+00  0.00000000E+00  0.00000000E+00
  0.00000000E+00  0.00000000E+00  0.00000000E+00
  0.00000000E+00  0.00000000E+00  0.00000000E+00
  0.00000000E+00  0.00000000E+00  0.00000000E+00
  0.00000000E+00  0.00000000E+00  0.00000000E+00
  0.00000000E+00  0.00000000E+00  0.00000000E+00
  0.00000000E+00  0.00000000E+00  0.00000000E+00
  0.00000000E+00  0.00000000E+00  0.00000000E+00
  0.00000000E+00  0.00000000E+00  0.00000000E+00
  0.00000000E+00  0.00000000E+00  0.00000000E+00
  0.00000000E+00  0.00000000E+00  0.00000000E+00
  0.00000000E+00  0.00000000E+00  0.00000000E+00
  0.00000000E+00  0.00000000E+00  0.00000000E+00
  0.00000000E+00  0.00000000E+00  0.00000000E+00
  0.00000000E+00  0.00000000E+00  0.00000000E+00
  0.00000000E+00  0.00000000E+00  0.00000000E+00
  0.00000000E+00  0.00000000E+00  0.00000000E+00
  0.00000000E+00  0.00000000E+00  0.00000000E+00
  0.00000000E+00  0.00000000E+00  0.00000000E+00
  0.00000000E+00  0.00000000E+00  0.00000000E+00
  0.00000000E+00  0.00000000E+00  0.00000000E+00
  0.00000000E+00  0.00000000E+00  0.00000000E+00
  0.00000000E+00  0.00000000E+00  0.00000000E+00
  0.00000000E+00  0.00000000E+00  0.00000000E+00
  0.00000000E+00  0.00000000E+00  0.00000000E+00
  0.00000000E+00  0.00000000E+00  0.00000000E+00
  0.00000000E+00  0.00000000E+00  0.00000000E+00
  0.00000000E+00  0.00000000E+00  0.00000000E+00
  0.00000000E+00  0.00000000E+00  0.00000000E+00
  0.00000000E+00  0.00000000E+00  0.00000000E+00
  0.00000000E+00  0.00000000E+00  0.00000000E+00
  0.00000000E+00  0.00000000E+00  0.00000000E+00
  0.00000000E+00  0.00000000E+00  0.00000000E+00
  0.00000000E+00  0.00000000E+00  0.00000000E+00
  0.00000000E+00  0.00000000E+00  0.00000000E+00
  0.00000000E+00  0.00000000E+00  0.00000000E+00
  0.00000000E+00  0.00000000E+00  0.00000000E+00
  0.00000000E+00  0.00000000E+00  0.00000000E+00
  0.00000000E+00  0.00000000E+00  0.00000000E+00
  0.00000000E+00  0.00000000E+00  0.00000000E+00
  0.00000000E+00  0.00000000E+00  0.00000000E+00
  0.00000000E+00  0.00000000E+00  0.00000000E+00
  0.00000000E+00  0.00000000E+00  0.00000000E+00
  0.00000000E+00  0.00000000E+00  0.00000000E+00
  0.00000000E+00  0.00000000E+00  0.00000000E+00
  0.00000000E+00  0.00000000E+00  0.00000000E+00
  0.00000000E+00  0.00000000E+00  0.00000000E+00
  0.00000000E+00  0.00000000E+00  0.00000000E+00
  0.00000000E+00  0.00000000E+00  0.00000000E+00
  0.00000000E+00  0.00000000E+00  0.00000000E+00
  0.00000000E+00  0.00000000E+00  0.00000000E+00
  0.00000000E+00  0.00000000E+00  0.00000000E+00
  0.00000000E+00  0.00000000E+00  0.00000000E+00
  0.00000000E+00  0.00000000E+00  0.00000000E+00
  0.00000000E+00  0.00000000E+00  0.00000000E+00
  0.00000000E+00  0.00000000E+00  0.00000000E+00
  0.00000000E+00  0.00000000E+00  0.00000000E+00
  0.00000000E+00  0.00000000E+00  0.00000000E+00
  0.00000000E+00  0.00000000E+00  0.00000000E+00
  0.00000000E+00  0.00000000E+00  0.00000000E+00
  0.00000000E+00  0.00000000E+00  0.00000000E+00
  0.00000000E+00  0.00000000E+00  0.00000000E+00
  0.00000000E+00  0.00000000E+00  0.00000000E+00
  0.00000000E+00  0.00000000E+00  0.00000000E+00
  0.00000000E+00  0.00000000E+00  0.00000000E+00
  0.00000000E+00  0.00000000E+00  0.00000000E+00
  0.00000000E+00  0.00000000E+00  0.00000000E+00
  0.00000000E+00  0.00000000E+00  0.00000000E+00
  0.00000000E+00  0.00000000E+00  0.00000000E+00
  0.00000000E+00  0.00000000E+00  0.00000000E+00
  0.00000000E+00  0.00000000E+00  0.00000000E+00
  0.00000000E+00  0.00000000E+00  0.00000000E+00
  0.00000000E+00  0.00000000E+00  0.00000000E+00
  0.00000000E+00  0.00000000E+00  0.00000000E+00
  0.00000000E+00  0.00000000E+00  0.00000000E+00
  0.00000000E+00  0.00000000E+00  0.00000000E+00
  0.00000000E+00  0.00000000E+00  0.00000000E+00
  0.00000000E+00  0.00000000E+00  0.00000000E+00
  0.00000000E+00  0.00000000E+00  0.00000000E+00
  0.00000000E+00  0.00000000E+00  0.00000000E+00
  0.00000000E+00  0.00000000E+00  0.00000000E+00
  0.00000000E+00  0.00000000E+00  0.00000000E+00
  0.00000000E+00  0.00000000E+00  0.00000000E+00
  0.00000000E+00  0.00000000E+00  0.00000000E+00
  0.00000000E+00  0.00000000E+00  0.00000000E+00
  0.00000000E+00  0.00000000E+00  0.00000000E+00
  0.00000000E+00  0.00000000E+00  0.00000000E+00
  0.00000000E+00  0.00000000E+00  0.00000000E+00
  0.00000000E+00  0.00000000E+00  0.00000000E+00
  0.00000000E+00  0.00000000E+00  0.00000000E+00
  0.00000000E+00  0.00000000E+00  0.00000000E+00
  0.00000000E+00  0.00000000E+00  0.00000000E+00
  0.00000000E+00  0.00000000E+00  0.00000000E+00
  0.00000000E+00  0.00000000E+00  0.00000000E+00
  0.00000000E+00  0.00000000E+00  0.00000000E+00
  0.00000000E+00  0.00000000E+00  0.00000000E+00
  0.00000000E+00  0.00000000E+00  0.00000000E+00
  0.00000000E+00  0.00000000E+00  0.00000000E+00
  0.00000000E+00  0.00000000E+00  0.00000000E+00
  0.00000000E+00  0.00000000E+00  0.00000000E+00
  0.00000000E+00  0.00000000E+00  0.00000000E+00
  0.00000000E+00  0.00000000E+00  0.00000000E+00
  0.00000000E+00  0.00000000E+00  0.00000000E+00
  0.00000000E+00  0.00000000E+00  0.00000000E+00
  0.00000000E+00  0.00000000E+00  0.00000000E+00
  0.00000000E+00  0.00000000E+00  0.00000000E+00
  0.00000000E+00  0.00000000E+00  0.00000000E+00
  0.00000000E+00  0.00000000E+00  0.00000000E+00
  0.00000000E+00  0.00000000E+00  0.00000000E+00
  0.00000000E+00  0.00000000E+00  0.00000000E+00
  0.00000000E+00  0.00000000E+00  0.00000000E+00
  0.00000000E+00  0.00000000E+00  0.00000000E+00
  0.00000000E+00  0.00000000E+00  0.00000000E+00
  0.00000000E+00  0.00000000E+00  0.00000000E+00
  0.00000000E+00  0.00000000E+00  0.00000000E+00
