Zn_H                                    
   1.00000000000000     
     8.1040495673953625   -0.0009118371591034   -0.0015214297579861
     0.0014583937807811   32.7276006696031700   -3.3891092002639951
     0.0002565301638051   -0.6890686843208003    6.7031669072192024
   C    Zn   H    N    O 
    80     4    32    24    16
Direct
  0.8955715630932133  0.9570058457219730  0.1581117379188797
  0.7436810373678213  0.9520998893596158  0.4276059148717266
  0.8961539032721078  0.7988086953003730  0.8884727152121101
  0.6044609441435398  0.4568930669119595  0.6563708203909471
  0.7553142996247075  0.3035441951075200  0.1173260165909085
  0.2527964832207630  0.8037018986678248  0.1186753108036029
  0.7560631983702208  0.4520215572337705  0.9261832972917858
  0.6031225411974930  0.2987231177652134  0.3867253583384951
  0.2477436257011760  0.4522412671380565  0.4263823172552890
  0.1011367365637383  0.7988488630721093  0.3884437782664136
  0.2520027407352643  0.9523100931922244  0.9276409108725829
  0.2467320731349574  0.3036438172342173  0.6174485336851347
  0.7445165759455179  0.8035603735743635  0.6184903930692087
  0.1001927963672671  0.9570333995834659  0.6577783826530776
  0.3987938435785452  0.2987887030228435  0.8869392708837154
  0.3995455413126763  0.4570106368080360  0.1566090657210779
  0.6834357716602355  0.0318981450774700  0.1333607687989655
  0.8242644353692654  0.0509703641299311  0.4697356468720173
  0.8257329571038170  0.7048047235004091  0.5763468719419507
  0.6756079743942252  0.5508173458273973  0.9686431348143358
  0.6739101268433956  0.2047105810761423  0.0755579097256387
  0.3138481673159674  0.7239938033207736  0.4132419552770372
  0.8164574239720608  0.5318903714456624  0.6322656871613432
  0.8148311117815297  0.2237743681307052  0.4119444960483847
  0.1872127734974214  0.5319658806978040  0.1320983450099860
  0.1735158108774115  0.7048732218494180  0.0765003094444694
  0.1716934131957544  0.0511378931067199  0.9689643251188613
  0.3264648649816095  0.2047743225008460  0.5757993199920364
  0.6849059534349564  0.7237163757553589  0.9127528604002109
  0.3125231435463860  0.0319358067845954  0.6326744410520106
  0.1860219586474443  0.2239957251852118  0.9123814839057331
  0.3280100878596244  0.5510626626283184  0.4684853224185090
  0.6869250845001957  0.0762138176573757  0.1190796831767926
  0.8150505842045987  0.0952002040265185  0.4553027871786242
  0.8165214586634022  0.6605425153458597  0.5902203940880710
  0.6848146285521182  0.5950716761204191  0.9547002269773586
  0.6831996160750791  0.1604776639959553  0.0899607969038456
  0.3114337770096895  0.6796415319876203  0.4269448182625197
  0.8129209299661468  0.5762321083407471  0.6184297829689029
  0.8113291884069298  0.1794636074114067  0.4262072917470832
  0.1898206200388444  0.5763120350198534  0.1183041089908059
  0.1839658801400290  0.6606239271830177  0.0903214728099968
  0.1823105996024452  0.0953722527753200  0.9549811689276240
  0.3159087466484820  0.1605425762411912  0.5899139431404805
  0.6884806201014584  0.6793786561347730  0.9265362026457140
  0.3098956199198781  0.0762611331254988  0.6185039759029820
  0.1884413525543778  0.1796626639977816  0.9264448184076102
  0.3174295190654561  0.5953198730129969  0.4548670300996278
  0.6259517474228389  0.0879821440200814  0.9471684797781847
  0.8754825851384425  0.1256806772503367  0.6119335964611068
  0.8770588318028913  0.6301258988975746  0.4334014725155839
  0.6243139849294010  0.6254871975292957  0.1115413860069054
  0.6225980606285404  0.1299975056924652  0.9334365977044712
  0.3724807662417291  0.6678715257730019  0.5988199842384745
  0.8737578987525083  0.5880838558057349  0.4466833092735740
  0.8721523794475630  0.1676929797296580  0.5981848984232130
  0.1288066264845256  0.5880757207509504  0.9464036629602646
  0.1243358145533051  0.6301160126648995  0.9332673967463734
  0.1227078458875255  0.1259224067254365  0.1118212549955970
  0.3754596979511149  0.1299903430715261  0.4330337294276418
  0.6276334430087189  0.6675264058639243  0.0982768986542624
  0.3708880865794768  0.0879662323913806  0.4464686951313013
  0.1273394696322114  0.1679474904190315  0.0984209836048109
  0.3770510729453278  0.6258282776670683  0.6119252121937464
  0.7876307510847269  0.9791808650411085  0.3014425476951104
  0.7885351959427211  0.7765455508008259  0.7449556960539141
  0.7123350155276569  0.4790783240350009  0.7998139787783174
  0.7110801188786340  0.2765028526758542  0.2435662012085515
  0.2090945279934786  0.7766666173776997  0.2451615683820094
  0.2918511077630583  0.4792655223768918  0.3000074106478721
  0.2079444681448877  0.9793077199542708  0.8010900388599325
  0.2906640914725358  0.2766048110168029  0.7438381390618716
  0.7497947924087214  0.1065852801231202  0.2801653044611427
  0.7512538523199623  0.6490719399951672  0.7651481591296587
  0.7500441678419492  0.6065382838072040  0.7797643226163231
  0.7485334736574600  0.1490942330102030  0.2650870455385501
  0.2494782762555658  0.6492420377437185  0.2653699293722340
  0.2518302627887934  0.6067058477539788  0.2798819030142852
  0.2479276729870818  0.1066985019751669  0.7798841038731723
  0.2503527839494808  0.1492188269230823  0.7650618533624538
  0.0705654656133206  0.8779618753432814  0.0231236194325248
  0.9259969631204257  0.8778469240878408  0.5229271515677070
  0.4291030926773800  0.3778898592927717  0.5215984628322516
  0.5736776228650484  0.3778364895228137  0.0217562631714046
  0.4249844959682960  0.1393800137667256  0.2994776047504288
  0.9173667427129431  0.5639210653606526  0.3229236565061910
  0.9156939753261568  0.1919086009341484  0.7217741050936581
  0.5822684279575370  0.0637720134260533  0.8236395780710666
  0.5841388812469788  0.6916904112372251  0.2220965448781342
  0.5750057530771215  0.6159857029985361  0.2449215086893730
  0.0748006021255563  0.6395521910787778  0.7998185095332175
  0.0731052341429574  0.1165389550231879  0.2453569794834891
  0.9263654497382490  0.6396298357451826  0.3000114873241699
  0.0845848393392927  0.1922109036724251  0.2222666990293334
  0.0859348977014349  0.5638435505626020  0.8224615259766992
  0.4152408312556517  0.6921013446433051  0.7228293208371639
  0.4266499857630137  0.6163962532401754  0.7453509772824276
  0.5732256199705930  0.1394367364578315  0.7998956217988678
  0.9247479519962809  0.1162599258765411  0.7455556544261697
  0.4136953323726047  0.0637044632872161  0.3226582519504362
  0.8351781150978113  0.4569718687367725  0.0589953994789880
  0.1674255440479300  0.2986816914045605  0.4847977414630833
  0.4611717113627307  0.4673375207926043  0.0332097239949931
  0.0396383435929835  0.7884850850110396  0.5118407463125507
  0.3311175484178008  0.9573256488779620  0.0604619231091590
  0.4604307372006460  0.2884191859339751  0.0102310760828459
  0.9571648067825507  0.9674076015299065  0.0348825473972241
  0.6654461092982942  0.7985424158413323  0.4856397941041664
  0.0385997856192475  0.9673417392111929  0.5342869646760491
  0.5430274836207616  0.4672802844953310  0.5329915843757718
  0.8346727018526110  0.2985694623227246  0.9847558416598972
  0.6644451479930424  0.9570264780692526  0.5602720266288586
  0.5413754573602176  0.2883486591374265  0.5099244630158069
  0.1686267813140176  0.4572335312317861  0.5591606889095218
  0.3318951271365194  0.7987285704956832  0.9858738076481686
  0.9576602056698960  0.7884767473799315  0.0119597167783851
  0.9180089252615602  0.9191200384438005  0.1968795977579205
  0.8237951449627516  0.9156353671084645  0.3622062901230692
  0.9183517190315982  0.8366878246456224  0.8494915959155946
  0.5818776032701436  0.4190209360771959  0.6952567974163273
  0.6753617279729696  0.3400342822686184  0.1825434323979493
  0.1726246324799163  0.8401590627553048  0.1839023878960546
  0.6759317573584553  0.4155565338046969  0.8607729747027619
  0.5809726799737476  0.3366040835673232  0.3477924288467449
  0.3274293964916382  0.4157224756969597  0.3609594256538884
  0.0785501636964767  0.8367070347059808  0.3493817263304209
  0.1721928009938622  0.9157942591790302  0.8624093606279928
  0.3269867215845252  0.3401053227358162  0.6825506222387858
  0.8242955023631424  0.8400719990495276  0.6838691861944639
  0.0780103601221356  0.9191627682310326  0.6968549363630530
  0.4212838330142716  0.3366503010573538  0.8478850571786438
  0.4216134486678627  0.4191185975276426  0.1954820328494833
  0.7533838053153019  0.0219320499117686  0.3097233292807928
  0.7546665444509202  0.7337696849370374  0.7365083723434509
  0.7464860896738728  0.5218439793240961  0.8084008703004031
  0.7450960822578594  0.2337418800377975  0.2354221289731981
  0.2437468441526605  0.7339411911956901  0.2368965244462302
  0.2574883143628668  0.5220064239909235  0.3082778669782229
  0.2423413428449166  0.0220394778752109  0.8090461706173002
  0.2560143349250055  0.2338829572212404  0.7358436767753815
  0.6231920325386682  0.0049835908129410  0.9996782381477658
  0.8912150520806392  0.0398904745225153  0.6140130797033052
  0.8927112947418934  0.7159646587305915  0.4323378771000606
  0.6087185401181898  0.5396700045355658  0.1127553694877932
  0.6067600702136744  0.2157857909784866  0.9313922404715527
  0.3734255029717986  0.7509403966359827  0.5472908062417474
  0.8767666527854132  0.5050212441129460  0.4984694393424718
  0.8749182746980821  0.2506888632555970  0.5457675412521326
  0.1273296587584056  0.5050233047869455  0.9982452896900824
  0.1062817951071793  0.7159218469361477  0.9323124660014912
  0.1040614458303821  0.0401099614853493  0.1129358156156144
  0.3939381495133318  0.2157782670951107  0.4316507431311436
  0.6247026637061595  0.7505748426766843  0.0467024767479458
  0.3723990553008960  0.0049603089138586  0.4989964376844185
  0.1265397428610200  0.2509775219347503  0.0463052969541025
  0.3955585900136711  0.5399831080721214  0.6123802177398971
 
  0.00000000E+00  0.00000000E+00  0.00000000E+00
  0.00000000E+00  0.00000000E+00  0.00000000E+00
  0.00000000E+00  0.00000000E+00  0.00000000E+00
  0.00000000E+00  0.00000000E+00  0.00000000E+00
  0.00000000E+00  0.00000000E+00  0.00000000E+00
  0.00000000E+00  0.00000000E+00  0.00000000E+00
  0.00000000E+00  0.00000000E+00  0.00000000E+00
  0.00000000E+00  0.00000000E+00  0.00000000E+00
  0.00000000E+00  0.00000000E+00  0.00000000E+00
  0.00000000E+00  0.00000000E+00  0.00000000E+00
  0.00000000E+00  0.00000000E+00  0.00000000E+00
  0.00000000E+00  0.00000000E+00  0.00000000E+00
  0.00000000E+00  0.00000000E+00  0.00000000E+00
  0.00000000E+00  0.00000000E+00  0.00000000E+00
  0.00000000E+00  0.00000000E+00  0.00000000E+00
  0.00000000E+00  0.00000000E+00  0.00000000E+00
  0.00000000E+00  0.00000000E+00  0.00000000E+00
  0.00000000E+00  0.00000000E+00  0.00000000E+00
  0.00000000E+00  0.00000000E+00  0.00000000E+00
  0.00000000E+00  0.00000000E+00  0.00000000E+00
  0.00000000E+00  0.00000000E+00  0.00000000E+00
  0.00000000E+00  0.00000000E+00  0.00000000E+00
  0.00000000E+00  0.00000000E+00  0.00000000E+00
  0.00000000E+00  0.00000000E+00  0.00000000E+00
  0.00000000E+00  0.00000000E+00  0.00000000E+00
  0.00000000E+00  0.00000000E+00  0.00000000E+00
  0.00000000E+00  0.00000000E+00  0.00000000E+00
  0.00000000E+00  0.00000000E+00  0.00000000E+00
  0.00000000E+00  0.00000000E+00  0.00000000E+00
  0.00000000E+00  0.00000000E+00  0.00000000E+00
  0.00000000E+00  0.00000000E+00  0.00000000E+00
  0.00000000E+00  0.00000000E+00  0.00000000E+00
  0.00000000E+00  0.00000000E+00  0.00000000E+00
  0.00000000E+00  0.00000000E+00  0.00000000E+00
  0.00000000E+00  0.00000000E+00  0.00000000E+00
  0.00000000E+00  0.00000000E+00  0.00000000E+00
  0.00000000E+00  0.00000000E+00  0.00000000E+00
  0.00000000E+00  0.00000000E+00  0.00000000E+00
  0.00000000E+00  0.00000000E+00  0.00000000E+00
  0.00000000E+00  0.00000000E+00  0.00000000E+00
  0.00000000E+00  0.00000000E+00  0.00000000E+00
  0.00000000E+00  0.00000000E+00  0.00000000E+00
  0.00000000E+00  0.00000000E+00  0.00000000E+00
  0.00000000E+00  0.00000000E+00  0.00000000E+00
  0.00000000E+00  0.00000000E+00  0.00000000E+00
  0.00000000E+00  0.00000000E+00  0.00000000E+00
  0.00000000E+00  0.00000000E+00  0.00000000E+00
  0.00000000E+00  0.00000000E+00  0.00000000E+00
  0.00000000E+00  0.00000000E+00  0.00000000E+00
  0.00000000E+00  0.00000000E+00  0.00000000E+00
  0.00000000E+00  0.00000000E+00  0.00000000E+00
  0.00000000E+00  0.00000000E+00  0.00000000E+00
  0.00000000E+00  0.00000000E+00  0.00000000E+00
  0.00000000E+00  0.00000000E+00  0.00000000E+00
  0.00000000E+00  0.00000000E+00  0.00000000E+00
  0.00000000E+00  0.00000000E+00  0.00000000E+00
  0.00000000E+00  0.00000000E+00  0.00000000E+00
  0.00000000E+00  0.00000000E+00  0.00000000E+00
  0.00000000E+00  0.00000000E+00  0.00000000E+00
  0.00000000E+00  0.00000000E+00  0.00000000E+00
  0.00000000E+00  0.00000000E+00  0.00000000E+00
  0.00000000E+00  0.00000000E+00  0.00000000E+00
  0.00000000E+00  0.00000000E+00  0.00000000E+00
  0.00000000E+00  0.00000000E+00  0.00000000E+00
  0.00000000E+00  0.00000000E+00  0.00000000E+00
  0.00000000E+00  0.00000000E+00  0.00000000E+00
  0.00000000E+00  0.00000000E+00  0.00000000E+00
  0.00000000E+00  0.00000000E+00  0.00000000E+00
  0.00000000E+00  0.00000000E+00  0.00000000E+00
  0.00000000E+00  0.00000000E+00  0.00000000E+00
  0.00000000E+00  0.00000000E+00  0.00000000E+00
  0.00000000E+00  0.00000000E+00  0.00000000E+00
  0.00000000E+00  0.00000000E+00  0.00000000E+00
  0.00000000E+00  0.00000000E+00  0.00000000E+00
  0.00000000E+00  0.00000000E+00  0.00000000E+00
  0.00000000E+00  0.00000000E+00  0.00000000E+00
  0.00000000E+00  0.00000000E+00  0.00000000E+00
  0.00000000E+00  0.00000000E+00  0.00000000E+00
  0.00000000E+00  0.00000000E+00  0.00000000E+00
  0.00000000E+00  0.00000000E+00  0.00000000E+00
  0.00000000E+00  0.00000000E+00  0.00000000E+00
  0.00000000E+00  0.00000000E+00  0.00000000E+00
  0.00000000E+00  0.00000000E+00  0.00000000E+00
  0.00000000E+00  0.00000000E+00  0.00000000E+00
  0.00000000E+00  0.00000000E+00  0.00000000E+00
  0.00000000E+00  0.00000000E+00  0.00000000E+00
  0.00000000E+00  0.00000000E+00  0.00000000E+00
  0.00000000E+00  0.00000000E+00  0.00000000E+00
  0.00000000E+00  0.00000000E+00  0.00000000E+00
  0.00000000E+00  0.00000000E+00  0.00000000E+00
  0.00000000E+00  0.00000000E+00  0.00000000E+00
  0.00000000E+00  0.00000000E+00  0.00000000E+00
  0.00000000E+00  0.00000000E+00  0.00000000E+00
  0.00000000E+00  0.00000000E+00  0.00000000E+00
  0.00000000E+00  0.00000000E+00  0.00000000E+00
  0.00000000E+00  0.00000000E+00  0.00000000E+00
  0.00000000E+00  0.00000000E+00  0.00000000E+00
  0.00000000E+00  0.00000000E+00  0.00000000E+00
  0.00000000E+00  0.00000000E+00  0.00000000E+00
  0.00000000E+00  0.00000000E+00  0.00000000E+00
  0.00000000E+00  0.00000000E+00  0.00000000E+00
  0.00000000E+00  0.00000000E+00  0.00000000E+00
  0.00000000E+00  0.00000000E+00  0.00000000E+00
  0.00000000E+00  0.00000000E+00  0.00000000E+00
  0.00000000E+00  0.00000000E+00  0.00000000E+00
  0.00000000E+00  0.00000000E+00  0.00000000E+00
  0.00000000E+00  0.00000000E+00  0.00000000E+00
  0.00000000E+00  0.00000000E+00  0.00000000E+00
  0.00000000E+00  0.00000000E+00  0.00000000E+00
  0.00000000E+00  0.00000000E+00  0.00000000E+00
  0.00000000E+00  0.00000000E+00  0.00000000E+00
  0.00000000E+00  0.00000000E+00  0.00000000E+00
  0.00000000E+00  0.00000000E+00  0.00000000E+00
  0.00000000E+00  0.00000000E+00  0.00000000E+00
  0.00000000E+00  0.00000000E+00  0.00000000E+00
  0.00000000E+00  0.00000000E+00  0.00000000E+00
  0.00000000E+00  0.00000000E+00  0.00000000E+00
  0.00000000E+00  0.00000000E+00  0.00000000E+00
  0.00000000E+00  0.00000000E+00  0.00000000E+00
  0.00000000E+00  0.00000000E+00  0.00000000E+00
  0.00000000E+00  0.00000000E+00  0.00000000E+00
  0.00000000E+00  0.00000000E+00  0.00000000E+00
  0.00000000E+00  0.00000000E+00  0.00000000E+00
  0.00000000E+00  0.00000000E+00  0.00000000E+00
  0.00000000E+00  0.00000000E+00  0.00000000E+00
  0.00000000E+00  0.00000000E+00  0.00000000E+00
  0.00000000E+00  0.00000000E+00  0.00000000E+00
  0.00000000E+00  0.00000000E+00  0.00000000E+00
  0.00000000E+00  0.00000000E+00  0.00000000E+00
  0.00000000E+00  0.00000000E+00  0.00000000E+00
  0.00000000E+00  0.00000000E+00  0.00000000E+00
  0.00000000E+00  0.00000000E+00  0.00000000E+00
  0.00000000E+00  0.00000000E+00  0.00000000E+00
  0.00000000E+00  0.00000000E+00  0.00000000E+00
  0.00000000E+00  0.00000000E+00  0.00000000E+00
  0.00000000E+00  0.00000000E+00  0.00000000E+00
  0.00000000E+00  0.00000000E+00  0.00000000E+00
  0.00000000E+00  0.00000000E+00  0.00000000E+00
  0.00000000E+00  0.00000000E+00  0.00000000E+00
  0.00000000E+00  0.00000000E+00  0.00000000E+00
  0.00000000E+00  0.00000000E+00  0.00000000E+00
  0.00000000E+00  0.00000000E+00  0.00000000E+00
  0.00000000E+00  0.00000000E+00  0.00000000E+00
  0.00000000E+00  0.00000000E+00  0.00000000E+00
  0.00000000E+00  0.00000000E+00  0.00000000E+00
  0.00000000E+00  0.00000000E+00  0.00000000E+00
  0.00000000E+00  0.00000000E+00  0.00000000E+00
  0.00000000E+00  0.00000000E+00  0.00000000E+00
  0.00000000E+00  0.00000000E+00  0.00000000E+00
  0.00000000E+00  0.00000000E+00  0.00000000E+00
  0.00000000E+00  0.00000000E+00  0.00000000E+00
  0.00000000E+00  0.00000000E+00  0.00000000E+00
  0.00000000E+00  0.00000000E+00  0.00000000E+00
  0.00000000E+00  0.00000000E+00  0.00000000E+00
  0.00000000E+00  0.00000000E+00  0.00000000E+00
  0.00000000E+00  0.00000000E+00  0.00000000E+00
