Zn_H                                    
   1.00000000000000     
     8.6990238385386807   -0.0006574626142555   -0.0015699574768426
     0.0025167582824709   32.7473214758187865   -3.1177246138193246
     0.0002393846100425   -0.6268078537806040    6.7696802960888487
   C    Zn   H    N    O 
    80     4    32    24    16
Direct
  0.8976825946320801  0.9574238881062342  0.1546779698319298
  0.7635757820582185  0.9518278628199113  0.4272874655712258
  0.8979926435250221  0.7984229916142169  0.8917885443466318
  0.6021648173963499  0.4573580312051533  0.6535800687368933
  0.7355630109384421  0.3038569496055459  0.1178486944629782
  0.2333485224430305  0.8039886789413728  0.1189017611887024
  0.7360903811499426  0.4517868678545014  0.9264255892237045
  0.6017243457220971  0.2983766417151230  0.3908331827924130
  0.2669275935139055  0.4519442149924657  0.4264925470914562
  0.0996051560085576  0.7984356066324025  0.3918641854374627
  0.2328748378684509  0.9519747981555611  0.9273451045088024
  0.2664295146526428  0.3039071065186292  0.6178454390719708
  0.7640805623525324  0.8039104985166432  0.6188083051073932
  0.0992154884868910  0.9573906045833169  0.6540860385403349
  0.4002098640364053  0.2983824169913945  0.8908775900396364
  0.4003594692508230  0.4573608195532302  0.1531220277214373
  0.6889982392374847  0.0321459168570826  0.1392794202656589
  0.8280569903003823  0.0504980133049315  0.4665618208253335
  0.8294238577593021  0.7053017983861167  0.5795125092159239
  0.6719124561623246  0.5504130899468080  0.9660019530182495
  0.6701026400786319  0.2052146863389623  0.0789270800136919
  0.3087246046037535  0.7237123939563617  0.4068021858526976
  0.8108133538831623  0.5321648813578292  0.6386380931676499
  0.8097890719192904  0.2235173452430388  0.4057446224993626
  0.1922059780238570  0.5321814791543673  0.1378851170267410
  0.1697890525263617  0.7053259782423282  0.0794232367912926
  0.1689240480680212  0.0506200930934142  0.9658096718700904
  0.3301717661982480  0.2052247824063258  0.5788473132631253
  0.6898702137953876  0.7235143968456015  0.9064195497030241
  0.3074904756050287  0.0321347775837566  0.6382829372268830
  0.1911289198230079  0.2236948198904969  0.9060400412471239
  0.3309187439422487  0.5505716998638235  0.4653564330815954
  0.6878231573185190  0.0766115022747300  0.1252218001427821
  0.8166733917016487  0.0947998847749218  0.4517748137820732
  0.8179892961866955  0.6609698381962517  0.5938293309368134
  0.6831624568567634  0.5947353216742144  0.9515276103220884
  0.6816774400404597  0.1608972501136989  0.0934909498169958
  0.3108056223269600  0.6792206671768355  0.4203264219662728
  0.8119732819332270  0.5766552559721276  0.6249705137574395
  0.8107108349306600  0.1790600327543075  0.4198951387237315
  0.1902692733176963  0.5766759240670467  0.1243493062953149
  0.1823297435774407  0.6610010728622839  0.0935364840758908
  0.1811697613610832  0.0949243622837557  0.9512147270666276
  0.3175499608402461  0.1609111235608083  0.5931483773181725
  0.6889735908916848  0.6790366869103153  0.9202617315504753
  0.3094912481538685  0.0766113062201512  0.6244370527574432
  0.1890510834688186  0.1792153354446171  0.9198446513098730
  0.3186610499361038  0.5948959402783061  0.4511258591893537
  0.6255443313931792  0.0888122470375592  0.9574144929318820
  0.8767045508477977  0.1248768040769406  0.6031946854884822
  0.8779080834180064  0.6309312790638799  0.4421781131323854
  0.6230555098142929  0.6247680481804281  0.1030632858561660
  0.6217980756171997  0.1308106438746890  0.9419756496606837
  0.3734887696064675  0.6670168691728335  0.5879119577730023
  0.8742487770739515  0.5889146213655181  0.4573260126017544
  0.8731491458440033  0.1668626953320782  0.5876301572872933
  0.1277122968735256  0.5888695840891600  0.9566835296337857
  0.1231100509291707  0.6308829290311877  0.9416643232007758
  0.1218291165821626  0.1250683323157276  0.1028511683985229
  0.3767423254147388  0.1307590739770959  0.4414395950151118
  0.6265439044623022  0.6667735729305306  0.0878041213171201
  0.3720689552384755  0.0887542577380174  0.4566695166416537
  0.1263679708044663  0.1670661475802646  0.0875381447103507
  0.3780335088497182  0.6250050253885036  0.6029327764474459
  0.7991842917351875  0.9791306990997555  0.2991351684380774
  0.7998017763704723  0.7766432808630199  0.7471215684921759
  0.7006251820688192  0.4790764277474651  0.7981217459493664
  0.6998470979046090  0.2765889053759381  0.2461406563524235
  0.1979434338310213  0.7767068379928972  0.2472623044875277
  0.3023694768646763  0.4791745000984591  0.2978906533048331
  0.1973620184494251  0.9791983575726562  0.7987316293009030
  0.3019179374087955  0.2766374384525463  0.7462370166970445
  0.7505233177995194  0.1065662337828996  0.2807703633746073
  0.7518981540355867  0.6491349864775842  0.7646754891009806
  0.7492537385471536  0.6065676566071545  0.7806722748781709
  0.7478217878751821  0.1491154430573971  0.2644566367279069
  0.2486966050963204  0.6492370451775145  0.2644250561890473
  0.2523247574841463  0.6066645378770374  0.2802535513098050
  0.2474830338979430  0.1066362641628018  0.7802025460506314
  0.2511475251415547  0.1491975354334016  0.7641151145227596
  0.0600806060161005  0.8779481898729813  0.0230528575398665
  0.9368265576168113  0.8779035465395992  0.5230268848102284
  0.4394708547370527  0.3778803993594408  0.5220589631333894
  0.5627836246978291  0.3778864020941981  0.0222281761994978
  0.4267166045120732  0.1404346515552319  0.3108143793811422
  0.9188584241463715  0.5651102803604218  0.3379967000968946
  0.9179431896636174  0.1907008954076090  0.7066749307422100
  0.5809293816111563  0.0649745116114389  0.8382134796956109
  0.5816854652572232  0.6905675813808472  0.2069689038057732
  0.5733512519861250  0.6149831868320064  0.2335817030264948
  0.0731671715469560  0.6405992382676686  0.8111078643060523
  0.0719155765237858  0.1153787362227945  0.2334898886350913
  0.9276062027700434  0.6407130377352601  0.3116538947688312
  0.0821835129995421  0.1909538552562751  0.2067867875859548
  0.0836127773160555  0.5650015636910481  0.8372524294619268
  0.4176626642002361  0.6908776757015573  0.7073103296609986
  0.4279901995209059  0.6152772959877453  0.7334755738767242
  0.5720404994900292  0.1405467337031610  0.8113585791743247
  0.9264137620268116  0.1151376819416328  0.7338389797514537
  0.4161089413232730  0.0648554783880755  0.3373476212498474
  0.8066646944391636  0.4563970224686784  0.0605000743716957
  0.1958958294887125  0.2992802843482494  0.4837476412040189
  0.4539768392964803  0.4677987965757140  0.0275367630263617
  0.0458019636546325  0.7879258367040833  0.5171274279252671
  0.3033139562016203  0.9566607379347403  0.0615427709227632
  0.4539724154595461  0.2878898431030734  0.0162303504072625
  0.9515843851772132  0.9679583996549326  0.0295390166802250
  0.6935600398698583  0.7992653670008565  0.4846826360025460
  0.0454751754621583  0.9678400190860117  0.5286007730961941
  0.5483623496196017  0.4678726532028605  0.5282932720796722
  0.8060674425076186  0.2992110451826875  0.9837304228799724
  0.6929250904796760  0.9564332208877886  0.5612866991559287
  0.5478361208012004  0.2879024926886231  0.5161418120356203
  0.1965782546471431  0.4566345580639180  0.5607507097591196
  0.3039054192107926  0.7993660722173956  0.9848393268068847
  0.9519052000506179  0.7879434220662276  0.0170903460891765
  0.9218180499738722  0.9195845558857201  0.1948022491889319
  0.8387110461069724  0.9157429297954636  0.3622893109431047
  0.9218822600333993  0.8362695571492864  0.8515892794237772
  0.5779289903150513  0.4195271782195604  0.6937888072546414
  0.6607520795994830  0.3399936517354760  0.1829275076385173
  0.1582113021541645  0.8400773199912024  0.1838666710383521
  0.6609192330151359  0.4157057416638636  0.8614298977711599
  0.5778169911052373  0.3362213394931217  0.3506445290775346
  0.3417091320707115  0.4158057334664633  0.3614678305743695
  0.0753408765735912  0.8362632259600460  0.3515870329662363
  0.1579810088437910  0.9158432894058066  0.8624344307969380
  0.3415134714516981  0.3400062731815439  0.6828379576795385
  0.8389143952705211  0.8400433455660661  0.6838802766606662
  0.0751331957835930  0.9195755118455793  0.6945626495439114
  0.4244170035436881  0.3362109155594695  0.8505877282335348
  0.4244101782592224  0.4195378689254170  0.1935185514653384
  0.7630276615009279  0.0217058255302902  0.3086341547417604
  0.7640204216066593  0.7340364768304468  0.7373780834826391
  0.7367791306548312  0.5216581943677738  0.8078090148664145
  0.7356367913663604  0.2339875168096199  0.2365586013799472
  0.2344194133694089  0.7341443700078685  0.2376032799592878
  0.2661885218902285  0.5217492050680477  0.3072847538189407
  0.2336082338585257  0.0217601366137146  0.8078860913241499
  0.2654325710905141  0.2340787723936302  0.7367628732549463
  0.6305401743625296  0.0055033413667971  0.0105734107190827
  0.8926457555695606  0.0391675496737776  0.6081908379103496
  0.8943142090598002  0.7166950798779865  0.4382814359865037
  0.6075449606461589  0.5390275212702846  0.1076238838076264
  0.6050181044523271  0.2165682944606218  0.9377026776365582
  0.3666808774523886  0.7503703013724561  0.5358877665707382
  0.8692751238670837  0.5055653351740901  0.5097505484354414
  0.8685223244993878  0.2501251090480494  0.5343607595488891
  0.1343845864698494  0.5055176471155676  0.0086874836988500
  0.1046377854118603  0.7166303962081244  0.9381152626007676
  0.1040149510175894  0.0393638957212730  0.1073871497203953
  0.3954637159173302  0.2164992780603612  0.4375777530302187
  0.6311218519852844  0.7500910586904226  0.0351723494702014
  0.3651949670446797  0.0054355184432495  0.5091838040865611
  0.1331787726269908  0.2503811986937734  0.0349633377730711
  0.3958727815557879  0.5392663753002438  0.6067890935448759
 
  0.00000000E+00  0.00000000E+00  0.00000000E+00
  0.00000000E+00  0.00000000E+00  0.00000000E+00
  0.00000000E+00  0.00000000E+00  0.00000000E+00
  0.00000000E+00  0.00000000E+00  0.00000000E+00
  0.00000000E+00  0.00000000E+00  0.00000000E+00
  0.00000000E+00  0.00000000E+00  0.00000000E+00
  0.00000000E+00  0.00000000E+00  0.00000000E+00
  0.00000000E+00  0.00000000E+00  0.00000000E+00
  0.00000000E+00  0.00000000E+00  0.00000000E+00
  0.00000000E+00  0.00000000E+00  0.00000000E+00
  0.00000000E+00  0.00000000E+00  0.00000000E+00
  0.00000000E+00  0.00000000E+00  0.00000000E+00
  0.00000000E+00  0.00000000E+00  0.00000000E+00
  0.00000000E+00  0.00000000E+00  0.00000000E+00
  0.00000000E+00  0.00000000E+00  0.00000000E+00
  0.00000000E+00  0.00000000E+00  0.00000000E+00
  0.00000000E+00  0.00000000E+00  0.00000000E+00
  0.00000000E+00  0.00000000E+00  0.00000000E+00
  0.00000000E+00  0.00000000E+00  0.00000000E+00
  0.00000000E+00  0.00000000E+00  0.00000000E+00
  0.00000000E+00  0.00000000E+00  0.00000000E+00
  0.00000000E+00  0.00000000E+00  0.00000000E+00
  0.00000000E+00  0.00000000E+00  0.00000000E+00
  0.00000000E+00  0.00000000E+00  0.00000000E+00
  0.00000000E+00  0.00000000E+00  0.00000000E+00
  0.00000000E+00  0.00000000E+00  0.00000000E+00
  0.00000000E+00  0.00000000E+00  0.00000000E+00
  0.00000000E+00  0.00000000E+00  0.00000000E+00
  0.00000000E+00  0.00000000E+00  0.00000000E+00
  0.00000000E+00  0.00000000E+00  0.00000000E+00
  0.00000000E+00  0.00000000E+00  0.00000000E+00
  0.00000000E+00  0.00000000E+00  0.00000000E+00
  0.00000000E+00  0.00000000E+00  0.00000000E+00
  0.00000000E+00  0.00000000E+00  0.00000000E+00
  0.00000000E+00  0.00000000E+00  0.00000000E+00
  0.00000000E+00  0.00000000E+00  0.00000000E+00
  0.00000000E+00  0.00000000E+00  0.00000000E+00
  0.00000000E+00  0.00000000E+00  0.00000000E+00
  0.00000000E+00  0.00000000E+00  0.00000000E+00
  0.00000000E+00  0.00000000E+00  0.00000000E+00
  0.00000000E+00  0.00000000E+00  0.00000000E+00
  0.00000000E+00  0.00000000E+00  0.00000000E+00
  0.00000000E+00  0.00000000E+00  0.00000000E+00
  0.00000000E+00  0.00000000E+00  0.00000000E+00
  0.00000000E+00  0.00000000E+00  0.00000000E+00
  0.00000000E+00  0.00000000E+00  0.00000000E+00
  0.00000000E+00  0.00000000E+00  0.00000000E+00
  0.00000000E+00  0.00000000E+00  0.00000000E+00
  0.00000000E+00  0.00000000E+00  0.00000000E+00
  0.00000000E+00  0.00000000E+00  0.00000000E+00
  0.00000000E+00  0.00000000E+00  0.00000000E+00
  0.00000000E+00  0.00000000E+00  0.00000000E+00
  0.00000000E+00  0.00000000E+00  0.00000000E+00
  0.00000000E+00  0.00000000E+00  0.00000000E+00
  0.00000000E+00  0.00000000E+00  0.00000000E+00
  0.00000000E+00  0.00000000E+00  0.00000000E+00
  0.00000000E+00  0.00000000E+00  0.00000000E+00
  0.00000000E+00  0.00000000E+00  0.00000000E+00
  0.00000000E+00  0.00000000E+00  0.00000000E+00
  0.00000000E+00  0.00000000E+00  0.00000000E+00
  0.00000000E+00  0.00000000E+00  0.00000000E+00
  0.00000000E+00  0.00000000E+00  0.00000000E+00
  0.00000000E+00  0.00000000E+00  0.00000000E+00
  0.00000000E+00  0.00000000E+00  0.00000000E+00
  0.00000000E+00  0.00000000E+00  0.00000000E+00
  0.00000000E+00  0.00000000E+00  0.00000000E+00
  0.00000000E+00  0.00000000E+00  0.00000000E+00
  0.00000000E+00  0.00000000E+00  0.00000000E+00
  0.00000000E+00  0.00000000E+00  0.00000000E+00
  0.00000000E+00  0.00000000E+00  0.00000000E+00
  0.00000000E+00  0.00000000E+00  0.00000000E+00
  0.00000000E+00  0.00000000E+00  0.00000000E+00
  0.00000000E+00  0.00000000E+00  0.00000000E+00
  0.00000000E+00  0.00000000E+00  0.00000000E+00
  0.00000000E+00  0.00000000E+00  0.00000000E+00
  0.00000000E+00  0.00000000E+00  0.00000000E+00
  0.00000000E+00  0.00000000E+00  0.00000000E+00
  0.00000000E+00  0.00000000E+00  0.00000000E+00
  0.00000000E+00  0.00000000E+00  0.00000000E+00
  0.00000000E+00  0.00000000E+00  0.00000000E+00
  0.00000000E+00  0.00000000E+00  0.00000000E+00
  0.00000000E+00  0.00000000E+00  0.00000000E+00
  0.00000000E+00  0.00000000E+00  0.00000000E+00
  0.00000000E+00  0.00000000E+00  0.00000000E+00
  0.00000000E+00  0.00000000E+00  0.00000000E+00
  0.00000000E+00  0.00000000E+00  0.00000000E+00
  0.00000000E+00  0.00000000E+00  0.00000000E+00
  0.00000000E+00  0.00000000E+00  0.00000000E+00
  0.00000000E+00  0.00000000E+00  0.00000000E+00
  0.00000000E+00  0.00000000E+00  0.00000000E+00
  0.00000000E+00  0.00000000E+00  0.00000000E+00
  0.00000000E+00  0.00000000E+00  0.00000000E+00
  0.00000000E+00  0.00000000E+00  0.00000000E+00
  0.00000000E+00  0.00000000E+00  0.00000000E+00
  0.00000000E+00  0.00000000E+00  0.00000000E+00
  0.00000000E+00  0.00000000E+00  0.00000000E+00
  0.00000000E+00  0.00000000E+00  0.00000000E+00
  0.00000000E+00  0.00000000E+00  0.00000000E+00
  0.00000000E+00  0.00000000E+00  0.00000000E+00
  0.00000000E+00  0.00000000E+00  0.00000000E+00
  0.00000000E+00  0.00000000E+00  0.00000000E+00
  0.00000000E+00  0.00000000E+00  0.00000000E+00
  0.00000000E+00  0.00000000E+00  0.00000000E+00
  0.00000000E+00  0.00000000E+00  0.00000000E+00
  0.00000000E+00  0.00000000E+00  0.00000000E+00
  0.00000000E+00  0.00000000E+00  0.00000000E+00
  0.00000000E+00  0.00000000E+00  0.00000000E+00
  0.00000000E+00  0.00000000E+00  0.00000000E+00
  0.00000000E+00  0.00000000E+00  0.00000000E+00
  0.00000000E+00  0.00000000E+00  0.00000000E+00
  0.00000000E+00  0.00000000E+00  0.00000000E+00
  0.00000000E+00  0.00000000E+00  0.00000000E+00
  0.00000000E+00  0.00000000E+00  0.00000000E+00
  0.00000000E+00  0.00000000E+00  0.00000000E+00
  0.00000000E+00  0.00000000E+00  0.00000000E+00
  0.00000000E+00  0.00000000E+00  0.00000000E+00
  0.00000000E+00  0.00000000E+00  0.00000000E+00
  0.00000000E+00  0.00000000E+00  0.00000000E+00
  0.00000000E+00  0.00000000E+00  0.00000000E+00
  0.00000000E+00  0.00000000E+00  0.00000000E+00
  0.00000000E+00  0.00000000E+00  0.00000000E+00
  0.00000000E+00  0.00000000E+00  0.00000000E+00
  0.00000000E+00  0.00000000E+00  0.00000000E+00
  0.00000000E+00  0.00000000E+00  0.00000000E+00
  0.00000000E+00  0.00000000E+00  0.00000000E+00
  0.00000000E+00  0.00000000E+00  0.00000000E+00
  0.00000000E+00  0.00000000E+00  0.00000000E+00
  0.00000000E+00  0.00000000E+00  0.00000000E+00
  0.00000000E+00  0.00000000E+00  0.00000000E+00
  0.00000000E+00  0.00000000E+00  0.00000000E+00
  0.00000000E+00  0.00000000E+00  0.00000000E+00
  0.00000000E+00  0.00000000E+00  0.00000000E+00
  0.00000000E+00  0.00000000E+00  0.00000000E+00
  0.00000000E+00  0.00000000E+00  0.00000000E+00
  0.00000000E+00  0.00000000E+00  0.00000000E+00
  0.00000000E+00  0.00000000E+00  0.00000000E+00
  0.00000000E+00  0.00000000E+00  0.00000000E+00
  0.00000000E+00  0.00000000E+00  0.00000000E+00
  0.00000000E+00  0.00000000E+00  0.00000000E+00
  0.00000000E+00  0.00000000E+00  0.00000000E+00
  0.00000000E+00  0.00000000E+00  0.00000000E+00
  0.00000000E+00  0.00000000E+00  0.00000000E+00
  0.00000000E+00  0.00000000E+00  0.00000000E+00
  0.00000000E+00  0.00000000E+00  0.00000000E+00
  0.00000000E+00  0.00000000E+00  0.00000000E+00
  0.00000000E+00  0.00000000E+00  0.00000000E+00
  0.00000000E+00  0.00000000E+00  0.00000000E+00
  0.00000000E+00  0.00000000E+00  0.00000000E+00
  0.00000000E+00  0.00000000E+00  0.00000000E+00
  0.00000000E+00  0.00000000E+00  0.00000000E+00
  0.00000000E+00  0.00000000E+00  0.00000000E+00
  0.00000000E+00  0.00000000E+00  0.00000000E+00
  0.00000000E+00  0.00000000E+00  0.00000000E+00
  0.00000000E+00  0.00000000E+00  0.00000000E+00
  0.00000000E+00  0.00000000E+00  0.00000000E+00
  0.00000000E+00  0.00000000E+00  0.00000000E+00
