system = flex_MOF

ISTART = 0
ICHARG = 2
INIWAV = 1
ISPIN = 1

LREAL = Auto
PREC = Normal
NCORE = 4

GGA = PE

#SCF options
ENCUT = 600        #energy cutoff [ev]
EDIFF = 1E-6       #SCF criteria

# Relaxation options
EDIFFG = -0.01     #Force criteria
IBRION = 2         #Ionic relaxation (RMM-DIIS: 1, CG: 2)
ISIF = 4           #relax Relaxation
NSW =  1000        #Number of steps for relaxation
NELMIN = 4
NELM = 80
IALGO = 48
IVDW = 12
ISYM = 0

ISMEAR = 0         #Default
SIGMA = 0.05       #Default

KSPACING = 0.3
KGAMMA = .TRUE.


