CoH_5	                                  
   1.00000000000000     
    20.5870080329491998   -0.0017706327948893    0.0066787744471298
     0.0002081928772088   28.0585243924871222    3.9450303615381417
     0.0023972590874547    0.7917483859085241    6.0639116713719945
   C    Co   H    N    O 
    80     4    32    24    16
Direct
  0.8799441837683233  0.9638846100950929  0.1226342826877342
  0.9375921642377634  0.9794020521474280  0.4054692114443128
  0.8799304066563778  0.8165854261297198  0.9253626386827492
  0.6196828141584803  0.4637154089621518  0.6267308787765913
  0.5623410445389254  0.3006168422953479  0.1473922112489205
  0.0622588370317416  0.8009580298002845  0.1419350109033246
  0.5621788922627218  0.4791108578354226  0.9104311567757577
  0.6200212616247640  0.3162995339544565  0.4297959180601225
  0.4376497786420259  0.4790990714834535  0.4106452433570595
  0.1198221759106630  0.8165845556698343  0.4247126988604748
  0.0623312006130519  0.9794009322890176  0.9051295760175790
  0.4376864200704489  0.3005283676816219  0.6478429226988496
  0.9374594457613128  0.8009854804740186  0.6421563173787419
  0.1199732838365364  0.9639239106640858  0.6219371101065008
  0.3800092284366769  0.3161561788195755  0.9306349048932887
  0.3801589147351265  0.4636936215812639  0.1271978919472971
  0.8054818441450493  0.0331123775818085  0.4575399115338996
  0.8479080656604268  0.0775809119551383  0.0720546132561140
  0.8479573948766088  0.7028046004419366  0.9783729037089586
  0.6515734596640570  0.5774432114205226  0.5744113687839345
  0.6522499322672175  0.2025605858347461  0.4815994435156341
  0.1943805554117262  0.7469359321654920  0.0921313711141210
  0.6940048677609454  0.5332881477634857  0.9601256369761444
  0.6945244774152144  0.2469569771540847  0.0957440179722511
  0.3058167104359626  0.5333326076989877  0.4604734749175776
  0.1517465052517508  0.7028053996678523  0.4779145592037750
  0.1520179725237512  0.0776922653044778  0.5718868296423167
  0.3477769872038934  0.2023879067699923  0.9820553826560143
  0.8054720592552300  0.7469495439374398  0.5926771813619709
  0.1944630547093524  0.0330495268830120  0.9568113354220884
  0.3054985479323094  0.2469594804189299  0.5966393051202701
  0.3483558539627012  0.5774172246517466  0.0745542988748369
  0.7658371334421616  0.0766837639572415  0.4583729132062544
  0.8089254440803870  0.1208291107251682  0.0834104506308009
  0.8087601426421003  0.6595331886046623  0.9686201332615596
  0.6906597850303555  0.6207254937029987  0.5845649130636588
  0.6912649507663104  0.1593182904776214  0.4702627722107522
  0.2342128455260806  0.7033348273353397  0.0929093822331737
  0.7337781594410657  0.5768868152306013  0.9597194517264711
  0.7343037489124953  0.2034309223019193  0.0951117282045217
  0.2660246375585302  0.5769344915117998  0.4597885556427954
  0.1909937553364358  0.6595577186243702  0.4682764738597740
  0.1910277516252989  0.1209070110517487  0.5835278064981750
  0.3086477193298975  0.1592059784043869  0.9706257264323312
  0.7656066284248340  0.7033681011432549  0.5934919913112537
  0.2340303190352628  0.0766334410966749  0.9581662954465315
  0.2656893045502713  0.2034655927910123  0.5957316306951057
  0.3092024620995133  0.6206913459754659  0.0843586336815747
  0.7257204020118238  0.0757953074116315  0.6423350609095095
  0.8115484590854720  0.1631396700442806  0.9051566475188224
  0.8113276631880524  0.6173450080342349  0.1475891187898668
  0.6880824163452175  0.6629032460736752  0.4056013777924576
  0.6886163381079697  0.1169824661978467  0.6484177561746165
  0.2744154084318851  0.7039997995993375  0.9094157721311191
  0.7740087284868480  0.5761581461517338  0.1430357524326382
  0.7743915523479927  0.2043050740151244  0.9110875595443844
  0.2257575195062529  0.5762361400632372  0.6431576678387287
  0.1883972670662217  0.6174123980095487  0.6474798773310368
  0.1884481968347487  0.1632685896334323  0.4055581468304794
  0.3111525026467632  0.1168474358051554  0.1486705569110782
  0.7253872773138426  0.7040896950826223  0.4101783515431308
  0.2740189397086823  0.0756931109369319  0.1423135429251445
  0.2256251577075759  0.2044101811344419  0.4117276066158198
  0.3117402370325166  0.6628081611040813  0.9050219544382614
  0.8846319524128248  0.9956279106758572  0.2624937004767887
  0.8846219723697359  0.7847253058645336  0.7860592818761845
  0.6149327351402576  0.4955116057129487  0.7663647049735900
  0.6153186075994341  0.2844560683300585  0.2904225997826515
  0.1151045793923586  0.7847049799914316  0.2855150667312074
  0.3849214068386217  0.4955017351117377  0.2667448415063944
  0.1152768840805649  0.9956659779899724  0.7618257754480098
  0.3847387717903601  0.2843219776558215  0.7912437770316316
  0.7689881314286282  0.1191725459036661  0.2738748883587903
  0.7686645310146929  0.6610391307794359  0.7788734737800809
  0.7306968251991819  0.6192308623129108  0.7744321477552063
  0.7312099510376129  0.1609731364088134  0.2797893463645238
  0.2311377404030992  0.6610429892636631  0.2784818223287928
  0.2691273687335638  0.6192366168955914  0.2742665664573067
  0.2309311636457636  0.1191784645774092  0.7739652611906038
  0.2687388295446667  0.1609509552450703  0.7801414765484580
  0.9759712058219208  0.8902532454831800  0.0230259433841340
  0.0238794948247758  0.8902718776000427  0.5230866433948336
  0.5238293011837101  0.3898448938678953  0.5289381980720549
  0.4760089572163864  0.3898151517064505  0.0292228961675320
  0.3422793633004844  0.1165885482409479  0.2930873380459289
  0.7755186755533288  0.5429849622976306  0.2828971750257452
  0.7758482749621791  0.2375481783969278  0.7716006642186457
  0.7241810652831902  0.0425058899391502  0.7815661674544501
  0.7239407424080042  0.7372386310746748  0.2701822736062880
  0.6568120619646223  0.6629805843407439  0.2617652428348620
  0.1570413617522277  0.6173509519627771  0.7912443615162132
  0.1572916360357084  0.1635086658427483  0.2612349479422136
  0.8426419699380148  0.6172496518466133  0.2913540009420927
  0.2242045373052335  0.2376844498668902  0.2724224936943642
  0.2242827713698929  0.5430955606021826  0.7832238420834869
  0.2758231489513463  0.7370957800128508  0.7691136896139810
  0.3429828076929553  0.6628298801343320  0.7610344677105871
  0.6573938092965079  0.1167786357147733  0.7926838472031221
  0.8427313844513691  0.1633324252137029  0.7608098243285966
  0.2754610069330639  0.0423914566605319  0.2814562672780170
  0.5425077004744878  0.4929594754446498  0.0459302193258964
  0.4573731802762424  0.2865854918999844  0.5126557843095796
  0.3475436816313433  0.4644031887371796  0.9867882144967552
  0.1524833461395616  0.8159922973311495  0.5648789901152753
  0.0426438428677400  0.9932684421188753  0.0405338409175755
  0.3472314894439563  0.3155771820637270  0.0706200675756179
  0.8472120585531542  0.9645220193858393  0.9826134588480997
  0.9571224328887311  0.7870306178222535  0.5069791911410562
  0.1526970536618180  0.9645717153677325  0.4817163032654861
  0.6523129708408462  0.4644317858853384  0.4861860143092400
  0.5426587308540434  0.2866760959712593  0.0122909814316188
  0.9573191703953796  0.9933074779239490  0.5406206986036395
  0.6527942868689749  0.3157257420659718  0.5696470520283654
  0.4573324414094060  0.4929717201491499  0.5459758659605498
  0.0425632623133936  0.7870040230101978  0.0068803783811759
  0.8473059070284066  0.8159672938752109  0.0658210943677560
  0.9275011071470445  0.9301631676564028  0.1819226699199419
  0.9630026368316180  0.9398760406261957  0.3538954040335369
  0.9273727809524743  0.8503906478578074  0.8648550139727647
  0.5723484548651072  0.4298164854469562  0.6871531838263536
  0.5369333432031524  0.3401926968722435  0.1985124839257537
  0.0369362344841022  0.8406158645012241  0.1925745992467256
  0.5369363258680053  0.4394507829634762  0.8596521698408637
  0.5724516774399433  0.3500005363268670  0.3702197026315304
  0.4628532401928425  0.4394204563119999  0.3598686275969811
  0.0723913747518594  0.8503831090793383  0.3645200148244072
  0.0369314527235858  0.9398612748036115  0.8537107455125579
  0.4630573112907541  0.3401335659443561  0.6987607539902001
  0.9628124121240589  0.8406393764855480  0.6926820308540158
  0.0724285028293963  0.9301743639695701  0.6815356898526943
  0.4275367580782046  0.3499041387927164  0.8707211525427070
  0.4274463826712918  0.4297775114603581  0.1875326202682430
  0.8444534426512718  0.0364419448519939  0.2631370306744216
  0.8444773741796254  0.7438165281915801  0.7866534841419863
  0.6549996761332153  0.5364407852463344  0.7661037739923344
  0.6555546232668732  0.2436423493816022  0.2901778543043818
  0.1552468291860336  0.7437939922289161  0.2860569054794482
  0.3448736044354206  0.5364434883814440  0.2664265585242021
  0.1554738774164903  0.0364721885263606  0.7625581732113531
  0.3444834581115686  0.2435276791619501  0.7909419782475240
  0.8049169315627935  0.9957169012105780  0.6153384815988616
  0.8816693963917501  0.0768371519933240  0.9072493357497038
  0.8818714717389824  0.7036680232838748  0.1424987232698172
  0.6178006337239026  0.5765651890759429  0.4099684545247442
  0.6185798361312109  0.2033296906017128  0.6465737533072797
  0.1949431993830117  0.7841897169919605  0.9335800206825553
  0.6945358084081477  0.4959943059490115  0.1184586918318971
  0.6949860698933676  0.2843208240139319  0.9377839252260145
  0.3052463540115156  0.4960811913421708  0.6190438281989685
  0.1177812661915638  0.7036557530469665  0.6420983036842216
  0.1182452443022086  0.0770340358267276  0.4071508748265913
  0.3815177835934875  0.2030707411730148  0.1468316135063219
  0.8050319294664519  0.7841890831258880  0.4340323757848523
  0.1951057674220564  0.9955641470399499  0.1141113788605495
  0.3050834625450349  0.2843953135200792  0.4390615198687655
  0.3822356932540316  0.5765243803198103  0.9102220251654884
 
  0.00000000E+00  0.00000000E+00  0.00000000E+00
  0.00000000E+00  0.00000000E+00  0.00000000E+00
  0.00000000E+00  0.00000000E+00  0.00000000E+00
  0.00000000E+00  0.00000000E+00  0.00000000E+00
  0.00000000E+00  0.00000000E+00  0.00000000E+00
  0.00000000E+00  0.00000000E+00  0.00000000E+00
  0.00000000E+00  0.00000000E+00  0.00000000E+00
  0.00000000E+00  0.00000000E+00  0.00000000E+00
  0.00000000E+00  0.00000000E+00  0.00000000E+00
  0.00000000E+00  0.00000000E+00  0.00000000E+00
  0.00000000E+00  0.00000000E+00  0.00000000E+00
  0.00000000E+00  0.00000000E+00  0.00000000E+00
  0.00000000E+00  0.00000000E+00  0.00000000E+00
  0.00000000E+00  0.00000000E+00  0.00000000E+00
  0.00000000E+00  0.00000000E+00  0.00000000E+00
  0.00000000E+00  0.00000000E+00  0.00000000E+00
  0.00000000E+00  0.00000000E+00  0.00000000E+00
  0.00000000E+00  0.00000000E+00  0.00000000E+00
  0.00000000E+00  0.00000000E+00  0.00000000E+00
  0.00000000E+00  0.00000000E+00  0.00000000E+00
  0.00000000E+00  0.00000000E+00  0.00000000E+00
  0.00000000E+00  0.00000000E+00  0.00000000E+00
  0.00000000E+00  0.00000000E+00  0.00000000E+00
  0.00000000E+00  0.00000000E+00  0.00000000E+00
  0.00000000E+00  0.00000000E+00  0.00000000E+00
  0.00000000E+00  0.00000000E+00  0.00000000E+00
  0.00000000E+00  0.00000000E+00  0.00000000E+00
  0.00000000E+00  0.00000000E+00  0.00000000E+00
  0.00000000E+00  0.00000000E+00  0.00000000E+00
  0.00000000E+00  0.00000000E+00  0.00000000E+00
  0.00000000E+00  0.00000000E+00  0.00000000E+00
  0.00000000E+00  0.00000000E+00  0.00000000E+00
  0.00000000E+00  0.00000000E+00  0.00000000E+00
  0.00000000E+00  0.00000000E+00  0.00000000E+00
  0.00000000E+00  0.00000000E+00  0.00000000E+00
  0.00000000E+00  0.00000000E+00  0.00000000E+00
  0.00000000E+00  0.00000000E+00  0.00000000E+00
  0.00000000E+00  0.00000000E+00  0.00000000E+00
  0.00000000E+00  0.00000000E+00  0.00000000E+00
  0.00000000E+00  0.00000000E+00  0.00000000E+00
  0.00000000E+00  0.00000000E+00  0.00000000E+00
  0.00000000E+00  0.00000000E+00  0.00000000E+00
  0.00000000E+00  0.00000000E+00  0.00000000E+00
  0.00000000E+00  0.00000000E+00  0.00000000E+00
  0.00000000E+00  0.00000000E+00  0.00000000E+00
  0.00000000E+00  0.00000000E+00  0.00000000E+00
  0.00000000E+00  0.00000000E+00  0.00000000E+00
  0.00000000E+00  0.00000000E+00  0.00000000E+00
  0.00000000E+00  0.00000000E+00  0.00000000E+00
  0.00000000E+00  0.00000000E+00  0.00000000E+00
  0.00000000E+00  0.00000000E+00  0.00000000E+00
  0.00000000E+00  0.00000000E+00  0.00000000E+00
  0.00000000E+00  0.00000000E+00  0.00000000E+00
  0.00000000E+00  0.00000000E+00  0.00000000E+00
  0.00000000E+00  0.00000000E+00  0.00000000E+00
  0.00000000E+00  0.00000000E+00  0.00000000E+00
  0.00000000E+00  0.00000000E+00  0.00000000E+00
  0.00000000E+00  0.00000000E+00  0.00000000E+00
  0.00000000E+00  0.00000000E+00  0.00000000E+00
  0.00000000E+00  0.00000000E+00  0.00000000E+00
  0.00000000E+00  0.00000000E+00  0.00000000E+00
  0.00000000E+00  0.00000000E+00  0.00000000E+00
  0.00000000E+00  0.00000000E+00  0.00000000E+00
  0.00000000E+00  0.00000000E+00  0.00000000E+00
  0.00000000E+00  0.00000000E+00  0.00000000E+00
  0.00000000E+00  0.00000000E+00  0.00000000E+00
  0.00000000E+00  0.00000000E+00  0.00000000E+00
  0.00000000E+00  0.00000000E+00  0.00000000E+00
  0.00000000E+00  0.00000000E+00  0.00000000E+00
  0.00000000E+00  0.00000000E+00  0.00000000E+00
  0.00000000E+00  0.00000000E+00  0.00000000E+00
  0.00000000E+00  0.00000000E+00  0.00000000E+00
  0.00000000E+00  0.00000000E+00  0.00000000E+00
  0.00000000E+00  0.00000000E+00  0.00000000E+00
  0.00000000E+00  0.00000000E+00  0.00000000E+00
  0.00000000E+00  0.00000000E+00  0.00000000E+00
  0.00000000E+00  0.00000000E+00  0.00000000E+00
  0.00000000E+00  0.00000000E+00  0.00000000E+00
  0.00000000E+00  0.00000000E+00  0.00000000E+00
  0.00000000E+00  0.00000000E+00  0.00000000E+00
  0.00000000E+00  0.00000000E+00  0.00000000E+00
  0.00000000E+00  0.00000000E+00  0.00000000E+00
  0.00000000E+00  0.00000000E+00  0.00000000E+00
  0.00000000E+00  0.00000000E+00  0.00000000E+00
  0.00000000E+00  0.00000000E+00  0.00000000E+00
  0.00000000E+00  0.00000000E+00  0.00000000E+00
  0.00000000E+00  0.00000000E+00  0.00000000E+00
  0.00000000E+00  0.00000000E+00  0.00000000E+00
  0.00000000E+00  0.00000000E+00  0.00000000E+00
  0.00000000E+00  0.00000000E+00  0.00000000E+00
  0.00000000E+00  0.00000000E+00  0.00000000E+00
  0.00000000E+00  0.00000000E+00  0.00000000E+00
  0.00000000E+00  0.00000000E+00  0.00000000E+00
  0.00000000E+00  0.00000000E+00  0.00000000E+00
  0.00000000E+00  0.00000000E+00  0.00000000E+00
  0.00000000E+00  0.00000000E+00  0.00000000E+00
  0.00000000E+00  0.00000000E+00  0.00000000E+00
  0.00000000E+00  0.00000000E+00  0.00000000E+00
  0.00000000E+00  0.00000000E+00  0.00000000E+00
  0.00000000E+00  0.00000000E+00  0.00000000E+00
  0.00000000E+00  0.00000000E+00  0.00000000E+00
  0.00000000E+00  0.00000000E+00  0.00000000E+00
  0.00000000E+00  0.00000000E+00  0.00000000E+00
  0.00000000E+00  0.00000000E+00  0.00000000E+00
  0.00000000E+00  0.00000000E+00  0.00000000E+00
  0.00000000E+00  0.00000000E+00  0.00000000E+00
  0.00000000E+00  0.00000000E+00  0.00000000E+00
  0.00000000E+00  0.00000000E+00  0.00000000E+00
  0.00000000E+00  0.00000000E+00  0.00000000E+00
  0.00000000E+00  0.00000000E+00  0.00000000E+00
  0.00000000E+00  0.00000000E+00  0.00000000E+00
  0.00000000E+00  0.00000000E+00  0.00000000E+00
  0.00000000E+00  0.00000000E+00  0.00000000E+00
  0.00000000E+00  0.00000000E+00  0.00000000E+00
  0.00000000E+00  0.00000000E+00  0.00000000E+00
  0.00000000E+00  0.00000000E+00  0.00000000E+00
  0.00000000E+00  0.00000000E+00  0.00000000E+00
  0.00000000E+00  0.00000000E+00  0.00000000E+00
  0.00000000E+00  0.00000000E+00  0.00000000E+00
  0.00000000E+00  0.00000000E+00  0.00000000E+00
  0.00000000E+00  0.00000000E+00  0.00000000E+00
  0.00000000E+00  0.00000000E+00  0.00000000E+00
  0.00000000E+00  0.00000000E+00  0.00000000E+00
  0.00000000E+00  0.00000000E+00  0.00000000E+00
  0.00000000E+00  0.00000000E+00  0.00000000E+00
  0.00000000E+00  0.00000000E+00  0.00000000E+00
  0.00000000E+00  0.00000000E+00  0.00000000E+00
  0.00000000E+00  0.00000000E+00  0.00000000E+00
  0.00000000E+00  0.00000000E+00  0.00000000E+00
  0.00000000E+00  0.00000000E+00  0.00000000E+00
  0.00000000E+00  0.00000000E+00  0.00000000E+00
  0.00000000E+00  0.00000000E+00  0.00000000E+00
  0.00000000E+00  0.00000000E+00  0.00000000E+00
  0.00000000E+00  0.00000000E+00  0.00000000E+00
  0.00000000E+00  0.00000000E+00  0.00000000E+00
  0.00000000E+00  0.00000000E+00  0.00000000E+00
  0.00000000E+00  0.00000000E+00  0.00000000E+00
  0.00000000E+00  0.00000000E+00  0.00000000E+00
  0.00000000E+00  0.00000000E+00  0.00000000E+00
  0.00000000E+00  0.00000000E+00  0.00000000E+00
  0.00000000E+00  0.00000000E+00  0.00000000E+00
  0.00000000E+00  0.00000000E+00  0.00000000E+00
  0.00000000E+00  0.00000000E+00  0.00000000E+00
  0.00000000E+00  0.00000000E+00  0.00000000E+00
  0.00000000E+00  0.00000000E+00  0.00000000E+00
  0.00000000E+00  0.00000000E+00  0.00000000E+00
  0.00000000E+00  0.00000000E+00  0.00000000E+00
  0.00000000E+00  0.00000000E+00  0.00000000E+00
  0.00000000E+00  0.00000000E+00  0.00000000E+00
  0.00000000E+00  0.00000000E+00  0.00000000E+00
  0.00000000E+00  0.00000000E+00  0.00000000E+00
  0.00000000E+00  0.00000000E+00  0.00000000E+00
  0.00000000E+00  0.00000000E+00  0.00000000E+00
  0.00000000E+00  0.00000000E+00  0.00000000E+00
  0.00000000E+00  0.00000000E+00  0.00000000E+00
  0.00000000E+00  0.00000000E+00  0.00000000E+00
