Zn_H                                    
   1.00000000000000     
     8.5154545260766294   -0.0009042880752888   -0.0014255890296657
     0.0015242157300621   32.7475978911347880   -3.2057455913837036
     0.0003702890271865   -0.6459271331516989    6.7605218450782703
   C    Zn   H    N    O 
    80     4    32    24    16
Direct
  0.8960666594338207  0.9571957061469760  0.1555990934993403
  0.7580836012436976  0.9519999031733093  0.4281376518859332
  0.8964439842289238  0.7986459545344502  0.8915159911499373
  0.6040062318714163  0.4570961222677354  0.6542319267100822
  0.7407157195585441  0.3036532821857278  0.1172208365960827
  0.2382615927760909  0.8038890229083364  0.1185773961135226
  0.7415734690880811  0.4519503173556600  0.9271993839983779
  0.6031267790746853  0.2985659505239084  0.3902570513402424
  0.2619544078754217  0.4521262559906916  0.4270107295399015
  0.1008484818006181  0.7986803669701956  0.3915514020589654
  0.2378036406763471  0.9521610626317027  0.9280229771387951
  0.2615233828250041  0.3037628209000118  0.6171859713257248
  0.7588330999414907  0.8037353894003374  0.6184919512690286
  0.1001227493000982  0.9571953722180169  0.6550024499715192
  0.3990329002077218  0.2985837280893477  0.8901840396252112
  0.3992610516624069  0.4571501077236917  0.1537168316127548
  0.6872611611574442  0.0320849871039783  0.1376595390486557
  0.8270911930145601  0.0506294602633730  0.4670844258946616
  0.8286285747176620  0.7051787580213187  0.5792014926464333
  0.6728701675897995  0.5505166320198853  0.9663349438238882
  0.6712859305529690  0.2050548970910597  0.0782402056918485
  0.3104544220423548  0.7237755042066212  0.4083095602815021
  0.8126583024866463  0.5320963398028837  0.6368626397954316
  0.8116905825028553  0.2235665349305833  0.4073251479066897
  0.1902269614204357  0.5321265355190121  0.1361423586971142
  0.1707029315947466  0.7052308328162198  0.0788538956894982
  0.1695171754555673  0.0507649204988141  0.9661179496751444
  0.3292310536078844  0.2050805444863855  0.5780273401262122
  0.6878280527072178  0.7235417661124046  0.9079881521556530
  0.3091329429016554  0.0320602977405997  0.6366142885262178
  0.1894700890221515  0.2237470943617339  0.9073916481885362
  0.3302117617300837  0.5506977246137623  0.4654322176623964
  0.6875451436289950  0.0765027047406406  0.1235317995656615
  0.8162520033155900  0.0949144257995158  0.4525799180390351
  0.8175073609484613  0.6608572051538601  0.5930246718549768
  0.6836994672958241  0.5948230984669749  0.9522159231717637
  0.6824031926027132  0.1607615886320204  0.0925899463389541
  0.3110419355849601  0.6793247163476934  0.4219173210653011
  0.8123214016072922  0.5765425905260315  0.6231306261718572
  0.8112127305233301  0.1791571979872089  0.4215904266389572
  0.1898402654333395  0.5765758412561581  0.1223910214125539
  0.1828254999440091  0.6609111059400519  0.0925713195180862
  0.1816382320812338  0.0950502761874219  0.9519010793663298
  0.3170931307128413  0.1607813148788964  0.5921483398756067
  0.6885664479922156  0.6791146237387053  0.9219506820535415
  0.3097770951963597  0.0764917631191935  0.6225960088720441
  0.1888646675996739  0.1793207214801029  0.9213982007589649
  0.3181284816676637  0.5950090696556032  0.4516594667800575
  0.6256276955220486  0.0885821988973134  0.9547336090138501
  0.8763004644881747  0.1251034186919497  0.6054856216888140
  0.8776489108002039  0.6307204351858218  0.4399691456637171
  0.6235891933375299  0.6249567532741551  0.1052829622696692
  0.6222144113249612  0.1305750918674846  0.9397769534361373
  0.3730898078450906  0.6672389919744077  0.5906468515361780
  0.8741699115896466  0.5887027246788747  0.4544942926764506
  0.8729434135206091  0.1670900620598346  0.5905313293117587
  0.1279033700860523  0.5886731631693323  0.9536311248242839
  0.1235412497272890  0.6306903554567072  0.9392163798219713
  0.1222972673421765  0.1253148907311257  0.1049678460588126
  0.3763400885165993  0.1305130909056587  0.4390255204566742
  0.6268399824318251  0.6669633308990655  0.0906763373270607
  0.3717865871794785  0.0885132263825028  0.4537023006590175
  0.1267445420262518  0.1673097790398472  0.0902516856976021
  0.3775200943156136  0.6252203009612032  0.6049552766341009
  0.7954394225965800  0.9791367781917515  0.3000321196581410
  0.7962723318014255  0.7766224947831404  0.7467003376531380
  0.7045020798636301  0.4790599667513860  0.7988262678438005
  0.7032721901479206  0.2765436761930573  0.2454422265856806
  0.2012239574292138  0.7767354801977575  0.2467503204998707
  0.2989916110674429  0.4791827269748836  0.2983403022231528
  0.2005550300720529  0.9792201395453546  0.7994577442457711
  0.2986435032399370  0.2766253272122228  0.7454009202876719
  0.7504566727573874  0.1065687489289857  0.2804947184329549
  0.7515844971359655  0.6491086114975033  0.7648212332696858
  0.7494707256992399  0.6065584757047162  0.7803203506856775
  0.7483150422748466  0.1490943671947988  0.2645958225053135
  0.2488999690870699  0.6492337206618259  0.2644724607762043
  0.2519985919190759  0.6066755465044196  0.2797972838956682
  0.2477561259554761  0.1066415536692702  0.7798605232594582
  0.2509692706764284  0.1491778068072307  0.7641766228213953
  0.0625173790429230  0.8779764812168551  0.0235050019426453
  0.9338265263038465  0.8779449561694364  0.5233202662925720
  0.4371372391222437  0.3778997643102571  0.5222380499872230
  0.5657315966486465  0.3778890187001522  0.0223665877308363
  0.4261435197521521  0.1400976671876606  0.3076334371363529
  0.9186045766815596  0.5648213522837295  0.3339519967851530
  0.9173102303149250  0.1910210083335357  0.7109365882857901
  0.5811121916213793  0.0646532575083327  0.8344310603735678
  0.5823379891578142  0.6908432584630049  0.2111962219529460
  0.5741750286120961  0.6152610125729012  0.2365974377558686
  0.0738027304967517  0.6403245796931785  0.8078964636533996
  0.0725109950689102  0.1157253389665058  0.2363588669376497
  0.9272731846361992  0.6404201012455530  0.3087795010673702
  0.0829488912600311  0.1912984625870990  0.2107765280199274
  0.0841188616118558  0.5647340871632593  0.8328650472842511
  0.4168686039042058  0.6911826652192872  0.7114044165241253
  0.4273021548481992  0.6155775364155929  0.7362196845532196
  0.5725274994944485  0.1402167697476102  0.8084687703274440
  0.9257257109952803  0.1154680660821512  0.7369681775478085
  0.4154495260278210  0.0645345085165161  0.3330497290398355
  0.8139060113139038  0.4567395018888689  0.0613701373110089
  0.1891409467954759  0.2989801544617166  0.4830595909232187
  0.4545185869630757  0.4674305312882225  0.0281916377107834
  0.0456435648406242  0.7883175568466783  0.5168866908478904
  0.3102073122603954  0.9570233867323665  0.0621199215581640
  0.4542631910907602  0.2882394588192696  0.0155667634649035
  0.9515762956324778  0.9675712403326315  0.0304999948562426
  0.6864780347853454  0.7989071928258511  0.4843595092064987
  0.0447620517689131  0.9674781984971617  0.5295456188524312
  0.5487095415246941  0.4674479563241789  0.5289347852022601
  0.8130613963055922  0.2988149838360599  0.9830904418061195
  0.6855832172158145  0.9567781115972593  0.5621228085382626
  0.5477959963591701  0.2882506832366474  0.5156292797169613
  0.1897333984066378  0.4569878501430935  0.5612609676294369
  0.3106049470669987  0.7991113143992408  0.9844491624024769
  0.9518295853294347  0.7883458018388652  0.0169127650298435
  0.9200059623240691  0.9193945678458988  0.1956613342551847
  0.8344382723697024  0.9157711705355283  0.3629987238586736
  0.9201428727606711  0.8364615260413046  0.8514377870162235
  0.5798864156126271  0.4193104036746078  0.6944295248953978
  0.6647421230345927  0.3399338646583985  0.1825328045257208
  0.1618447738219899  0.8400988196935728  0.1838355929985624
  0.6652087877881954  0.4157222632887212  0.8620415773747467
  0.5794303563456396  0.3363807992638996  0.3501760726429239
  0.3381585373767280  0.4158695340090475  0.3620513224484370
  0.0766069103296658  0.8364744648046312  0.3514539257184808
  0.1615154467414399  0.9159070934122795  0.8631783802394324
  0.3378934875350197  0.3399871818906277  0.6824310213893412
  0.8348127713744518  0.8400158955614074  0.6837847394251000
  0.0761336817352927  0.9194316253452115  0.6955289097619612
  0.4231671300379034  0.3363825318707399  0.8500705882638400
  0.4233114859886342  0.4193846534591543  0.1942300779839172
  0.7599455469127605  0.0217697077062482  0.3090314623001120
  0.7611177504506941  0.7339604788219347  0.7372627680383061
  0.7399382477629004  0.5217033066088277  0.8080426708591162
  0.7385658576247067  0.2338972899484446  0.2362613254184467
  0.2371930515552521  0.7341142027820169  0.2373461227987832
  0.2633258343595983  0.5218087075158877  0.3072683163287167
  0.2362822500129198  0.0218295152733532  0.8080959222063129
  0.2626730978889427  0.2340098698688422  0.7362509630161824
  0.6283845299609894  0.0053810833610015  0.0074880868126925
  0.8927935093944086  0.0393589544140625  0.6089494368923525
  0.8947495181160861  0.7165293930496759  0.4378391624304001
  0.6072182361656573  0.5392010883125238  0.1081117092820776
  0.6053959371656106  0.2163332103348239  0.9365200225712158
  0.3690347165666523  0.7504842078568004  0.5387149193925467
  0.8715686219256753  0.5054420426165152  0.5064957016963874
  0.8710447123448191  0.2502494330720211  0.5371721510890808
  0.1315761104879485  0.5054108746108525  0.0058081265937915
  0.1045453633837852  0.7164878510178383  0.9372571264892358
  0.1032488269852365  0.0395820062670040  0.1078168904317849
  0.3953897646458699  0.2162855884772554  0.4363124995074514
  0.6281599847751806  0.7501637300680812  0.0378284395090418
  0.3673953181542444  0.0052798983866325  0.5063018266400192
  0.1309358156830953  0.2504944278850658  0.0376109676915846
  0.3965727890474398  0.5394487142378068  0.6069010180984833
 
  0.00000000E+00  0.00000000E+00  0.00000000E+00
  0.00000000E+00  0.00000000E+00  0.00000000E+00
  0.00000000E+00  0.00000000E+00  0.00000000E+00
  0.00000000E+00  0.00000000E+00  0.00000000E+00
  0.00000000E+00  0.00000000E+00  0.00000000E+00
  0.00000000E+00  0.00000000E+00  0.00000000E+00
  0.00000000E+00  0.00000000E+00  0.00000000E+00
  0.00000000E+00  0.00000000E+00  0.00000000E+00
  0.00000000E+00  0.00000000E+00  0.00000000E+00
  0.00000000E+00  0.00000000E+00  0.00000000E+00
  0.00000000E+00  0.00000000E+00  0.00000000E+00
  0.00000000E+00  0.00000000E+00  0.00000000E+00
  0.00000000E+00  0.00000000E+00  0.00000000E+00
  0.00000000E+00  0.00000000E+00  0.00000000E+00
  0.00000000E+00  0.00000000E+00  0.00000000E+00
  0.00000000E+00  0.00000000E+00  0.00000000E+00
  0.00000000E+00  0.00000000E+00  0.00000000E+00
  0.00000000E+00  0.00000000E+00  0.00000000E+00
  0.00000000E+00  0.00000000E+00  0.00000000E+00
  0.00000000E+00  0.00000000E+00  0.00000000E+00
  0.00000000E+00  0.00000000E+00  0.00000000E+00
  0.00000000E+00  0.00000000E+00  0.00000000E+00
  0.00000000E+00  0.00000000E+00  0.00000000E+00
  0.00000000E+00  0.00000000E+00  0.00000000E+00
  0.00000000E+00  0.00000000E+00  0.00000000E+00
  0.00000000E+00  0.00000000E+00  0.00000000E+00
  0.00000000E+00  0.00000000E+00  0.00000000E+00
  0.00000000E+00  0.00000000E+00  0.00000000E+00
  0.00000000E+00  0.00000000E+00  0.00000000E+00
  0.00000000E+00  0.00000000E+00  0.00000000E+00
  0.00000000E+00  0.00000000E+00  0.00000000E+00
  0.00000000E+00  0.00000000E+00  0.00000000E+00
  0.00000000E+00  0.00000000E+00  0.00000000E+00
  0.00000000E+00  0.00000000E+00  0.00000000E+00
  0.00000000E+00  0.00000000E+00  0.00000000E+00
  0.00000000E+00  0.00000000E+00  0.00000000E+00
  0.00000000E+00  0.00000000E+00  0.00000000E+00
  0.00000000E+00  0.00000000E+00  0.00000000E+00
  0.00000000E+00  0.00000000E+00  0.00000000E+00
  0.00000000E+00  0.00000000E+00  0.00000000E+00
  0.00000000E+00  0.00000000E+00  0.00000000E+00
  0.00000000E+00  0.00000000E+00  0.00000000E+00
  0.00000000E+00  0.00000000E+00  0.00000000E+00
  0.00000000E+00  0.00000000E+00  0.00000000E+00
  0.00000000E+00  0.00000000E+00  0.00000000E+00
  0.00000000E+00  0.00000000E+00  0.00000000E+00
  0.00000000E+00  0.00000000E+00  0.00000000E+00
  0.00000000E+00  0.00000000E+00  0.00000000E+00
  0.00000000E+00  0.00000000E+00  0.00000000E+00
  0.00000000E+00  0.00000000E+00  0.00000000E+00
  0.00000000E+00  0.00000000E+00  0.00000000E+00
  0.00000000E+00  0.00000000E+00  0.00000000E+00
  0.00000000E+00  0.00000000E+00  0.00000000E+00
  0.00000000E+00  0.00000000E+00  0.00000000E+00
  0.00000000E+00  0.00000000E+00  0.00000000E+00
  0.00000000E+00  0.00000000E+00  0.00000000E+00
  0.00000000E+00  0.00000000E+00  0.00000000E+00
  0.00000000E+00  0.00000000E+00  0.00000000E+00
  0.00000000E+00  0.00000000E+00  0.00000000E+00
  0.00000000E+00  0.00000000E+00  0.00000000E+00
  0.00000000E+00  0.00000000E+00  0.00000000E+00
  0.00000000E+00  0.00000000E+00  0.00000000E+00
  0.00000000E+00  0.00000000E+00  0.00000000E+00
  0.00000000E+00  0.00000000E+00  0.00000000E+00
  0.00000000E+00  0.00000000E+00  0.00000000E+00
  0.00000000E+00  0.00000000E+00  0.00000000E+00
  0.00000000E+00  0.00000000E+00  0.00000000E+00
  0.00000000E+00  0.00000000E+00  0.00000000E+00
  0.00000000E+00  0.00000000E+00  0.00000000E+00
  0.00000000E+00  0.00000000E+00  0.00000000E+00
  0.00000000E+00  0.00000000E+00  0.00000000E+00
  0.00000000E+00  0.00000000E+00  0.00000000E+00
  0.00000000E+00  0.00000000E+00  0.00000000E+00
  0.00000000E+00  0.00000000E+00  0.00000000E+00
  0.00000000E+00  0.00000000E+00  0.00000000E+00
  0.00000000E+00  0.00000000E+00  0.00000000E+00
  0.00000000E+00  0.00000000E+00  0.00000000E+00
  0.00000000E+00  0.00000000E+00  0.00000000E+00
  0.00000000E+00  0.00000000E+00  0.00000000E+00
  0.00000000E+00  0.00000000E+00  0.00000000E+00
  0.00000000E+00  0.00000000E+00  0.00000000E+00
  0.00000000E+00  0.00000000E+00  0.00000000E+00
  0.00000000E+00  0.00000000E+00  0.00000000E+00
  0.00000000E+00  0.00000000E+00  0.00000000E+00
  0.00000000E+00  0.00000000E+00  0.00000000E+00
  0.00000000E+00  0.00000000E+00  0.00000000E+00
  0.00000000E+00  0.00000000E+00  0.00000000E+00
  0.00000000E+00  0.00000000E+00  0.00000000E+00
  0.00000000E+00  0.00000000E+00  0.00000000E+00
  0.00000000E+00  0.00000000E+00  0.00000000E+00
  0.00000000E+00  0.00000000E+00  0.00000000E+00
  0.00000000E+00  0.00000000E+00  0.00000000E+00
  0.00000000E+00  0.00000000E+00  0.00000000E+00
  0.00000000E+00  0.00000000E+00  0.00000000E+00
  0.00000000E+00  0.00000000E+00  0.00000000E+00
  0.00000000E+00  0.00000000E+00  0.00000000E+00
  0.00000000E+00  0.00000000E+00  0.00000000E+00
  0.00000000E+00  0.00000000E+00  0.00000000E+00
  0.00000000E+00  0.00000000E+00  0.00000000E+00
  0.00000000E+00  0.00000000E+00  0.00000000E+00
  0.00000000E+00  0.00000000E+00  0.00000000E+00
  0.00000000E+00  0.00000000E+00  0.00000000E+00
  0.00000000E+00  0.00000000E+00  0.00000000E+00
  0.00000000E+00  0.00000000E+00  0.00000000E+00
  0.00000000E+00  0.00000000E+00  0.00000000E+00
  0.00000000E+00  0.00000000E+00  0.00000000E+00
  0.00000000E+00  0.00000000E+00  0.00000000E+00
  0.00000000E+00  0.00000000E+00  0.00000000E+00
  0.00000000E+00  0.00000000E+00  0.00000000E+00
  0.00000000E+00  0.00000000E+00  0.00000000E+00
  0.00000000E+00  0.00000000E+00  0.00000000E+00
  0.00000000E+00  0.00000000E+00  0.00000000E+00
  0.00000000E+00  0.00000000E+00  0.00000000E+00
  0.00000000E+00  0.00000000E+00  0.00000000E+00
  0.00000000E+00  0.00000000E+00  0.00000000E+00
  0.00000000E+00  0.00000000E+00  0.00000000E+00
  0.00000000E+00  0.00000000E+00  0.00000000E+00
  0.00000000E+00  0.00000000E+00  0.00000000E+00
  0.00000000E+00  0.00000000E+00  0.00000000E+00
  0.00000000E+00  0.00000000E+00  0.00000000E+00
  0.00000000E+00  0.00000000E+00  0.00000000E+00
  0.00000000E+00  0.00000000E+00  0.00000000E+00
  0.00000000E+00  0.00000000E+00  0.00000000E+00
  0.00000000E+00  0.00000000E+00  0.00000000E+00
  0.00000000E+00  0.00000000E+00  0.00000000E+00
  0.00000000E+00  0.00000000E+00  0.00000000E+00
  0.00000000E+00  0.00000000E+00  0.00000000E+00
  0.00000000E+00  0.00000000E+00  0.00000000E+00
  0.00000000E+00  0.00000000E+00  0.00000000E+00
  0.00000000E+00  0.00000000E+00  0.00000000E+00
  0.00000000E+00  0.00000000E+00  0.00000000E+00
  0.00000000E+00  0.00000000E+00  0.00000000E+00
  0.00000000E+00  0.00000000E+00  0.00000000E+00
  0.00000000E+00  0.00000000E+00  0.00000000E+00
  0.00000000E+00  0.00000000E+00  0.00000000E+00
  0.00000000E+00  0.00000000E+00  0.00000000E+00
  0.00000000E+00  0.00000000E+00  0.00000000E+00
  0.00000000E+00  0.00000000E+00  0.00000000E+00
  0.00000000E+00  0.00000000E+00  0.00000000E+00
  0.00000000E+00  0.00000000E+00  0.00000000E+00
  0.00000000E+00  0.00000000E+00  0.00000000E+00
  0.00000000E+00  0.00000000E+00  0.00000000E+00
  0.00000000E+00  0.00000000E+00  0.00000000E+00
  0.00000000E+00  0.00000000E+00  0.00000000E+00
  0.00000000E+00  0.00000000E+00  0.00000000E+00
  0.00000000E+00  0.00000000E+00  0.00000000E+00
  0.00000000E+00  0.00000000E+00  0.00000000E+00
  0.00000000E+00  0.00000000E+00  0.00000000E+00
  0.00000000E+00  0.00000000E+00  0.00000000E+00
  0.00000000E+00  0.00000000E+00  0.00000000E+00
  0.00000000E+00  0.00000000E+00  0.00000000E+00
  0.00000000E+00  0.00000000E+00  0.00000000E+00
  0.00000000E+00  0.00000000E+00  0.00000000E+00
  0.00000000E+00  0.00000000E+00  0.00000000E+00
  0.00000000E+00  0.00000000E+00  0.00000000E+00
  0.00000000E+00  0.00000000E+00  0.00000000E+00
