Co_B                                    
   1.00000000000000     
    11.9064922594009790   -0.0038206462911211   -0.0392783001019618
    -0.0172962260529328   32.3662224560077902   -2.0793442143210039
    -0.0256380578584922   -0.4426120597636157    6.4246650269359353
   C    Co   H    N    O 
    80     4    32    24    16
Direct
  0.9189894224963879  0.9612738411877686  0.1299212376043073
  0.8267509393763177  0.9535667971952151  0.4228374255158869
  0.9195881364211971  0.7997366690363847  0.9202594597188281
  0.5819071103904534  0.4610556014956444  0.6293658234632531
  0.6725757099361331  0.3070989472838690  0.1266282598570498
  0.1735898425082709  0.8075257366338064  0.1288507008470248
  0.6737453125277355  0.4536561265885837  0.9254868975158033
  0.5802541342894827  0.2995862717809743  0.4197314884407533
  0.3282073604215370  0.4539125053413997  0.4216626170373132
  0.0813603103704281  0.7997705674252202  0.4217228953053720
  0.1727957738538066  0.9539800098304028  0.9270093378812234
  0.3264437157241105  0.3072753145587086  0.6227505629654218
  0.8273626461925687  0.8070147424527221  0.6243668106773512
  0.0807364277643856  0.9612201056474916  0.6309284641231230
  0.4184798398406215  0.2998026945860914  0.9185781911238493
  0.4202240973212454  0.4613355623280455  0.1281581043727442
  0.7474955686729885  0.0340827975977547  0.1163707277014083
  0.8589839746760930  0.0530692275636611  0.4478324617756684
  0.8597885684977129  0.7075972488895772  0.6022871052012917
  0.6420680406868513  0.5530703534889412  0.9476047155163698
  0.6391992903241928  0.2076182746179640  0.1026189950011229
  0.2527528181506611  0.7269433007453898  0.4354660182412573
  0.7527706113627701  0.5339753859503347  0.6184387253268184
  0.7509571373243276  0.2266310217930751  0.4337254632190479
  0.2500981272541623  0.5345205429074511  0.1147511148296374
  0.1418347155430908  0.7081009625005379  0.1031511130168425
  0.1404267192306676  0.0534207320838505  0.9481459029702464
  0.3578056900810012  0.2078134918252701  0.6008596462953619
  0.7491646447137157  0.7266810992257433  0.9315468452696933
  0.2515593607043982  0.0341985650567906  0.6195930515190113
  0.2468012953816796  0.2270468679581299  0.9295241467798192
  0.3616045820471072  0.5533300415455571  0.4463190374412278
  0.7194432698492861  0.0786880862981647  0.1175743015977773
  0.8303442496638098  0.0973836740853429  0.4410940521867772
  0.8315907917426557  0.6632637754666391  0.6098074723077573
  0.6704794293455336  0.5973952616219265  0.9404028931357189
  0.6676665703955607  0.1633047267871603  0.1096443181785887
  0.2808677217247748  0.6823254966100407  0.4337341494280267
  0.7803973237920800  0.5786115092615134  0.6189266064420167
  0.7786703875768310  0.1820144757178710  0.4329980634796939
  0.2223227598262554  0.5791539920794193  0.1162142294704864
  0.1704662427807193  0.6637872657110861  0.1094732133195961
  0.1685948881702828  0.0977461771482027  0.9401561670787828
  0.3296458792758585  0.1634949013114522  0.6088783975411971
  0.7216794237313735  0.6820464616254966  0.9312496374475359
  0.2789603074004603  0.0788391799795676  0.6193787352164648
  0.2193492320713091  0.1824110843246061  0.9297518126941071
  0.3329529484998233  0.5976625114955283  0.4401587547748136
  0.6521433870900992  0.0908026440083134  0.9589946783033625
  0.8717789074163633  0.1277469117365015  0.5955405305378392
  0.8727113666735136  0.6328532373147340  0.4566540330691140
  0.6294505818346181  0.6278054482325501  0.0936549041994965
  0.6261549048969854  0.1329489414379310  0.9552508082611624
  0.3480075745729820  0.6701084618732125  0.5922987995528217
  0.8470004448387556  0.5906913651578733  0.4609647904138257
  0.8458588735337500  0.1698988910002797  0.5917282811514397
  0.1552466672211708  0.5913538958851419  0.9575536942864389
  0.1292484567004806  0.6335132778702501  0.9543840599607094
  0.1271382013680409  0.1282251213180601  0.0925980552812931
  0.3710035899889661  0.1330286859693715  0.4562719505413142
  0.6551594078955389  0.6699657391254519  0.0893152282482603
  0.3455750743019053  0.0908668672918651  0.4612953843007475
  0.1526025579864196  0.1703904049250653  0.0876557928321944
  0.3741813121443585  0.6279487551565737  0.5952070353305459
  0.8475104701261813  0.9817279412371178  0.2806559628963754
  0.8483127125554333  0.7790214712579981  0.7677553676552762
  0.6532943839765935  0.4816663148968985  0.7819838790924436
  0.6514536835169764  0.2789978864578160  0.2689220235719461
  0.1529580834406019  0.7793588828049138  0.2710579003697688
  0.3492765206860184  0.4819945631792848  0.2792141236099752
  0.1520255248953291  0.9819412385794095  0.7833946458049326
  0.3468609353794392  0.2792449067265252  0.7661683128144574
  0.7619724214161252  0.1089481912009447  0.2775347193100615
  0.7638711789230754  0.6517315116677693  0.7726403963980317
  0.7382101856005647  0.6089248218926002  0.7775748902021036
  0.7360474945892577  0.1517440876423066  0.2731886409896020
  0.2386327377513027  0.6521394673450374  0.2730905238895360
  0.2646777047558757  0.6093313959675797  0.2767128888150907
  0.2364627230672411  0.1092159550603640  0.7773742127524415
  0.2618751103945343  0.1520286349408622  0.7717881974821807
  0.0367318733202140  0.8805981248813808  0.0265722890395352
  0.9633264013699545  0.8804000018180034  0.5250435865888790
  0.4635835364680219  0.3804247902338105  0.5234740135767950
  0.5368980641635659  0.3804599885402595  0.0245960447686855
  0.4229377711707656  0.1427155535844378  0.3325480814057897
  0.8780776173694278  0.5666561528411691  0.3407305759118984
  0.8773216100125225  0.1938951012422550  0.7128392424914196
  0.6207451998540066  0.0668164950646641  0.8377803220052442
  0.6241000021426828  0.6940037555113889  0.2095765336422062
  0.5775742920484390  0.6180789949990881  0.2173405022708508
  0.0769601821711774  0.6433469762373960  0.8302524739460324
  0.0750405164988592  0.1185499836335140  0.2161189725816044
  0.9246197467938728  0.6425871542162795  0.3330204045212000
  0.1211833967710305  0.1944719678641533  0.2072990966313810
  0.1239520563045104  0.5674188716367610  0.8359787417525411
  0.3792110797005250  0.6940275580963160  0.7140544045434254
  0.4265454863012437  0.6181230607130885  0.7192537670043038
  0.5737063018055579  0.1427181697853399  0.8311618402560654
  0.9242278324913116  0.1179989144792870  0.7196821594839022
  0.3769000393077633  0.0667886359331078  0.3415357338391942
  0.7216273301183662  0.4576590820032393  0.0709873972276469
  0.2784183068937267  0.3033301911579471  0.4773954176629189
  0.4560798519276332  0.4724856674339648  0.9917777568227706
  0.0455145059802007  0.7884960551410600  0.5578098906712867
  0.2207963891034908  0.9580514395967867  0.0723906297387984
  0.4541586694046629  0.2886412681530501  0.0559474617668982
  0.9548519843924055  0.9725454534429048  0.9938457443302369
  0.7793585944522832  0.8029610942709056  0.4789967659390655
  0.0449417607244555  0.9722933438741563  0.4934316470892171
  0.5463339737978004  0.4721875445729040  0.4918367139283077
  0.7206230838910699  0.3031636106232583  0.9826291421064468
  0.7786853542020893  0.9574151688753574  0.5668183210333950
  0.5443015667536883  0.2884048013391833  0.5559491160416385
  0.2803287908831678  0.4579075187050989  0.5658465746640715
  0.2216623491338865  0.8037015366196840  0.9848957972733174
  0.9554552796553253  0.7886585071900356  0.0576837733649072
  0.9405550010314769  0.9230745368053945  0.1800457090463681
  0.8836257390744748  0.9180411067102270  0.3594337637909035
  0.9408819307517504  0.8379249866454543  0.8700834455982758
  0.5600925831071422  0.4229102351525995  0.6796054417472774
  0.6161454866198923  0.3427267815181523  0.1900597097616838
  0.1165495704310970  0.8430135700989254  0.1921664227234814
  0.6167921779715755  0.4180595278596897  0.8609648071886795
  0.5591615806870962  0.3378099315939807  0.3695401286432585
  0.3844237001272930  0.4182436443300901  0.3581286427669070
  0.0596202334119553  0.8379508749972899  0.3715102188753434
  0.1161107676551936  0.9183081032131071  0.8626984327686884
  0.3836198730810594  0.3428336988401455  0.6871420104314296
  0.8839572557217679  0.8426986303994539  0.6888434103053243
  0.0592788998497440  0.9230615655974148  0.6813417912970863
  0.4404240765715457  0.3379402724375424  0.8683453911627339
  0.4412305494702480  0.4231049359928889  0.1783690623291179
  0.8124979656329572  0.0238696560651093  0.2874800792979570
  0.8135495821426204  0.7368439895723427  0.7611605105709884
  0.6883496751640408  0.5238169663471126  0.7887863726702022
  0.6860619346701782  0.2368302029337457  0.2624672112385582
  0.1880447198304225  0.7372320367730936  0.2640938536106248
  0.3148210745538336  0.5241931892935057  0.2859983305880149
  0.1868858341792929  0.0241122314049633  0.7897824617365430
  0.3116089001333009  0.2371190331826938  0.7594890419524276
  0.7167530868036351  0.0071399703743822  0.9753589113060528
  0.9201549323772298  0.0420041923540921  0.5846910722128129
  0.9203225864536435  0.7186412835406131  0.4659362800050459
  0.5812608875718510  0.5420390133527846  0.0835941168998815
  0.5779481961832076  0.2186725719833333  0.9658314631264773
  0.2831756704850221  0.7538298106696075  0.5769916648682951
  0.7833759935194919  0.5069699724351366  0.4786236034162172
  0.7818880507352404  0.2536029527311285  0.5744345522147114
  0.2192848264528138  0.5076432590876365  0.9734865680030182
  0.0808717489494555  0.7192104423247940  0.9660908551237242
  0.0796713606753769  0.0424375284105665  0.0843312556535594
  0.4184192547462118  0.2187893934274427  0.4644436358713406
  0.7184641216844625  0.7536947826853506  0.0712309459230767
  0.2825103360057355  0.0071326183455014  0.4803838701409262
  0.2157845270221230  0.2541257329489213  0.0686100617657175
  0.4229253763433576  0.5422080018300832  0.5828221668239806
 
  0.00000000E+00  0.00000000E+00  0.00000000E+00
  0.00000000E+00  0.00000000E+00  0.00000000E+00
  0.00000000E+00  0.00000000E+00  0.00000000E+00
  0.00000000E+00  0.00000000E+00  0.00000000E+00
  0.00000000E+00  0.00000000E+00  0.00000000E+00
  0.00000000E+00  0.00000000E+00  0.00000000E+00
  0.00000000E+00  0.00000000E+00  0.00000000E+00
  0.00000000E+00  0.00000000E+00  0.00000000E+00
  0.00000000E+00  0.00000000E+00  0.00000000E+00
  0.00000000E+00  0.00000000E+00  0.00000000E+00
  0.00000000E+00  0.00000000E+00  0.00000000E+00
  0.00000000E+00  0.00000000E+00  0.00000000E+00
  0.00000000E+00  0.00000000E+00  0.00000000E+00
  0.00000000E+00  0.00000000E+00  0.00000000E+00
  0.00000000E+00  0.00000000E+00  0.00000000E+00
  0.00000000E+00  0.00000000E+00  0.00000000E+00
  0.00000000E+00  0.00000000E+00  0.00000000E+00
  0.00000000E+00  0.00000000E+00  0.00000000E+00
  0.00000000E+00  0.00000000E+00  0.00000000E+00
  0.00000000E+00  0.00000000E+00  0.00000000E+00
  0.00000000E+00  0.00000000E+00  0.00000000E+00
  0.00000000E+00  0.00000000E+00  0.00000000E+00
  0.00000000E+00  0.00000000E+00  0.00000000E+00
  0.00000000E+00  0.00000000E+00  0.00000000E+00
  0.00000000E+00  0.00000000E+00  0.00000000E+00
  0.00000000E+00  0.00000000E+00  0.00000000E+00
  0.00000000E+00  0.00000000E+00  0.00000000E+00
  0.00000000E+00  0.00000000E+00  0.00000000E+00
  0.00000000E+00  0.00000000E+00  0.00000000E+00
  0.00000000E+00  0.00000000E+00  0.00000000E+00
  0.00000000E+00  0.00000000E+00  0.00000000E+00
  0.00000000E+00  0.00000000E+00  0.00000000E+00
  0.00000000E+00  0.00000000E+00  0.00000000E+00
  0.00000000E+00  0.00000000E+00  0.00000000E+00
  0.00000000E+00  0.00000000E+00  0.00000000E+00
  0.00000000E+00  0.00000000E+00  0.00000000E+00
  0.00000000E+00  0.00000000E+00  0.00000000E+00
  0.00000000E+00  0.00000000E+00  0.00000000E+00
  0.00000000E+00  0.00000000E+00  0.00000000E+00
  0.00000000E+00  0.00000000E+00  0.00000000E+00
  0.00000000E+00  0.00000000E+00  0.00000000E+00
  0.00000000E+00  0.00000000E+00  0.00000000E+00
  0.00000000E+00  0.00000000E+00  0.00000000E+00
  0.00000000E+00  0.00000000E+00  0.00000000E+00
  0.00000000E+00  0.00000000E+00  0.00000000E+00
  0.00000000E+00  0.00000000E+00  0.00000000E+00
  0.00000000E+00  0.00000000E+00  0.00000000E+00
  0.00000000E+00  0.00000000E+00  0.00000000E+00
  0.00000000E+00  0.00000000E+00  0.00000000E+00
  0.00000000E+00  0.00000000E+00  0.00000000E+00
  0.00000000E+00  0.00000000E+00  0.00000000E+00
  0.00000000E+00  0.00000000E+00  0.00000000E+00
  0.00000000E+00  0.00000000E+00  0.00000000E+00
  0.00000000E+00  0.00000000E+00  0.00000000E+00
  0.00000000E+00  0.00000000E+00  0.00000000E+00
  0.00000000E+00  0.00000000E+00  0.00000000E+00
  0.00000000E+00  0.00000000E+00  0.00000000E+00
  0.00000000E+00  0.00000000E+00  0.00000000E+00
  0.00000000E+00  0.00000000E+00  0.00000000E+00
  0.00000000E+00  0.00000000E+00  0.00000000E+00
  0.00000000E+00  0.00000000E+00  0.00000000E+00
  0.00000000E+00  0.00000000E+00  0.00000000E+00
  0.00000000E+00  0.00000000E+00  0.00000000E+00
  0.00000000E+00  0.00000000E+00  0.00000000E+00
  0.00000000E+00  0.00000000E+00  0.00000000E+00
  0.00000000E+00  0.00000000E+00  0.00000000E+00
  0.00000000E+00  0.00000000E+00  0.00000000E+00
  0.00000000E+00  0.00000000E+00  0.00000000E+00
  0.00000000E+00  0.00000000E+00  0.00000000E+00
  0.00000000E+00  0.00000000E+00  0.00000000E+00
  0.00000000E+00  0.00000000E+00  0.00000000E+00
  0.00000000E+00  0.00000000E+00  0.00000000E+00
  0.00000000E+00  0.00000000E+00  0.00000000E+00
  0.00000000E+00  0.00000000E+00  0.00000000E+00
  0.00000000E+00  0.00000000E+00  0.00000000E+00
  0.00000000E+00  0.00000000E+00  0.00000000E+00
  0.00000000E+00  0.00000000E+00  0.00000000E+00
  0.00000000E+00  0.00000000E+00  0.00000000E+00
  0.00000000E+00  0.00000000E+00  0.00000000E+00
  0.00000000E+00  0.00000000E+00  0.00000000E+00
  0.00000000E+00  0.00000000E+00  0.00000000E+00
  0.00000000E+00  0.00000000E+00  0.00000000E+00
  0.00000000E+00  0.00000000E+00  0.00000000E+00
  0.00000000E+00  0.00000000E+00  0.00000000E+00
  0.00000000E+00  0.00000000E+00  0.00000000E+00
  0.00000000E+00  0.00000000E+00  0.00000000E+00
  0.00000000E+00  0.00000000E+00  0.00000000E+00
  0.00000000E+00  0.00000000E+00  0.00000000E+00
  0.00000000E+00  0.00000000E+00  0.00000000E+00
  0.00000000E+00  0.00000000E+00  0.00000000E+00
  0.00000000E+00  0.00000000E+00  0.00000000E+00
  0.00000000E+00  0.00000000E+00  0.00000000E+00
  0.00000000E+00  0.00000000E+00  0.00000000E+00
  0.00000000E+00  0.00000000E+00  0.00000000E+00
  0.00000000E+00  0.00000000E+00  0.00000000E+00
  0.00000000E+00  0.00000000E+00  0.00000000E+00
  0.00000000E+00  0.00000000E+00  0.00000000E+00
  0.00000000E+00  0.00000000E+00  0.00000000E+00
  0.00000000E+00  0.00000000E+00  0.00000000E+00
  0.00000000E+00  0.00000000E+00  0.00000000E+00
  0.00000000E+00  0.00000000E+00  0.00000000E+00
  0.00000000E+00  0.00000000E+00  0.00000000E+00
  0.00000000E+00  0.00000000E+00  0.00000000E+00
  0.00000000E+00  0.00000000E+00  0.00000000E+00
  0.00000000E+00  0.00000000E+00  0.00000000E+00
  0.00000000E+00  0.00000000E+00  0.00000000E+00
  0.00000000E+00  0.00000000E+00  0.00000000E+00
  0.00000000E+00  0.00000000E+00  0.00000000E+00
  0.00000000E+00  0.00000000E+00  0.00000000E+00
  0.00000000E+00  0.00000000E+00  0.00000000E+00
  0.00000000E+00  0.00000000E+00  0.00000000E+00
  0.00000000E+00  0.00000000E+00  0.00000000E+00
  0.00000000E+00  0.00000000E+00  0.00000000E+00
  0.00000000E+00  0.00000000E+00  0.00000000E+00
  0.00000000E+00  0.00000000E+00  0.00000000E+00
  0.00000000E+00  0.00000000E+00  0.00000000E+00
  0.00000000E+00  0.00000000E+00  0.00000000E+00
  0.00000000E+00  0.00000000E+00  0.00000000E+00
  0.00000000E+00  0.00000000E+00  0.00000000E+00
  0.00000000E+00  0.00000000E+00  0.00000000E+00
  0.00000000E+00  0.00000000E+00  0.00000000E+00
  0.00000000E+00  0.00000000E+00  0.00000000E+00
  0.00000000E+00  0.00000000E+00  0.00000000E+00
  0.00000000E+00  0.00000000E+00  0.00000000E+00
  0.00000000E+00  0.00000000E+00  0.00000000E+00
  0.00000000E+00  0.00000000E+00  0.00000000E+00
  0.00000000E+00  0.00000000E+00  0.00000000E+00
  0.00000000E+00  0.00000000E+00  0.00000000E+00
  0.00000000E+00  0.00000000E+00  0.00000000E+00
  0.00000000E+00  0.00000000E+00  0.00000000E+00
  0.00000000E+00  0.00000000E+00  0.00000000E+00
  0.00000000E+00  0.00000000E+00  0.00000000E+00
  0.00000000E+00  0.00000000E+00  0.00000000E+00
  0.00000000E+00  0.00000000E+00  0.00000000E+00
  0.00000000E+00  0.00000000E+00  0.00000000E+00
  0.00000000E+00  0.00000000E+00  0.00000000E+00
  0.00000000E+00  0.00000000E+00  0.00000000E+00
  0.00000000E+00  0.00000000E+00  0.00000000E+00
  0.00000000E+00  0.00000000E+00  0.00000000E+00
  0.00000000E+00  0.00000000E+00  0.00000000E+00
  0.00000000E+00  0.00000000E+00  0.00000000E+00
  0.00000000E+00  0.00000000E+00  0.00000000E+00
  0.00000000E+00  0.00000000E+00  0.00000000E+00
  0.00000000E+00  0.00000000E+00  0.00000000E+00
  0.00000000E+00  0.00000000E+00  0.00000000E+00
  0.00000000E+00  0.00000000E+00  0.00000000E+00
  0.00000000E+00  0.00000000E+00  0.00000000E+00
  0.00000000E+00  0.00000000E+00  0.00000000E+00
  0.00000000E+00  0.00000000E+00  0.00000000E+00
  0.00000000E+00  0.00000000E+00  0.00000000E+00
  0.00000000E+00  0.00000000E+00  0.00000000E+00
  0.00000000E+00  0.00000000E+00  0.00000000E+00
  0.00000000E+00  0.00000000E+00  0.00000000E+00
  0.00000000E+00  0.00000000E+00  0.00000000E+00
  0.00000000E+00  0.00000000E+00  0.00000000E+00
  0.00000000E+00  0.00000000E+00  0.00000000E+00
