Co_D                                    
   1.00000000000000     
     9.0423412168295076    0.0010903706245252    0.0002551539377873
     0.0021657145652356   32.6894335626299721   -2.5753803644207474
     0.0012071452462300   -0.5555912200344080    6.7056101473186622
   C    Co   H    N    O 
    80     4    32    24    16
Direct
  0.8915374815881663  0.9560700277387255  0.1376433177455922
  0.7774511903355688  0.9502573136295993  0.4254614645509491
  0.8930487632688511  0.7974478606010749  0.8884850548857486
  0.6085291930026955  0.4560387535387562  0.6372279588442638
  0.7217578058078686  0.3032717195118479  0.1006813740050418
  0.2164582530791250  0.8034158727704508  0.1015418723488040
  0.7224014372730494  0.4502073933289523  0.9251312787703867
  0.6070729315801202  0.2974560621606841  0.3880843189397254
  0.2848189662663572  0.4505805128937297  0.4252712706566228
  0.1023999455222437  0.7975911908118931  0.3893766445402136
  0.2151843732824759  0.9505556195388465  0.9253364568203324
  0.2835662142675943  0.3033756670718759  0.6010487969959399
  0.7782746364029904  0.8032594482366306  0.6011826990115026
  0.1010220716466037  0.9562087316739891  0.6374377620394327
  0.3976628468992871  0.2975468831345225  0.8887958230500956
  0.3987971055561488  0.4562184761397745  0.1371704070681474
  0.6928696056441979  0.0313905895108704  0.1306319744169357
  0.8296504574801915  0.0483590006254389  0.4577985558688482
  0.8313285827546437  0.7051602053639954  0.5688522310078312
  0.6703891772705504  0.5483072680921381  0.9575856198014847
  0.6689956506921746  0.2051704008639206  0.0684405496898108
  0.3029829542329807  0.7225652480839813  0.3969758077949592
  0.8070598719238120  0.5313499579931289  0.6302308059812276
  0.8058961441969004  0.2221572794223476  0.3955840226980456
  0.1994411563723020  0.5314131080190663  0.1293589471592682
  0.1667826328455533  0.7052440655440080  0.0695017503870261
  0.1640810088968578  0.0487092780221090  0.9565267783740765
  0.3335705032763485  0.2051757796567983  0.5692233306489527
  0.6944273142350710  0.7221422076168480  0.8961015362328695
  0.3005804530018210  0.0313536621170414  0.6292285241558986
  0.1971736118130778  0.2225386977140076  0.8965783210774489
  0.3359405717505197  0.5487192341586891  0.4566090696052143
  0.6886370179475918  0.0760840524013275  0.1174380727998852
  0.8178751412783996  0.0928095381931300  0.4420907886319299
  0.8193949344327223  0.6607084315831031  0.5843290658209597
  0.6822198028759274  0.5927634233957164  0.9420366827266662
  0.6808009877768910  0.1607232542115042  0.0841485148603596
  0.3093887782125364  0.6778576523926816  0.4096350192317146
  0.8114080020836241  0.5760552169191868  0.6172797606132150
  0.8099760405857168  0.1774658756406211  0.4088975431086439
  0.1931067819354340  0.5761214034584583  0.1167147503067341
  0.1809165623707116  0.6608008149863949  0.0845604059171166
  0.1783657497580009  0.0931528384669065  0.9415300893169558
  0.3192700867539315  0.1607370792657861  0.5842224598975747
  0.6902228117382521  0.6774399615688722  0.9092052242689093
  0.3069746921918721  0.0760584778565558  0.6165063262751289
  0.1907532418184275  0.1778349195047468  0.9093243794992034
  0.3217130522782199  0.5931675480083882  0.4417034321854842
  0.6249368134673716  0.0891097072493494  0.9505034069710234
  0.8776992989474053  0.1222741611278053  0.5923275378819781
  0.8794676747785104  0.6312541973445605  0.4341724341724316
  0.6224609410683541  0.6222217029099184  0.0924392840231221
  0.6207122029001511  0.1312614735121329  0.9341023197569953
  0.3736548923738781  0.6649730177666058  0.5765760052852613
  0.8751617854671210  0.5890938178352485  0.4503916243323047
  0.8734034622803080  0.1644342352633927  0.5760051004223143
  0.1287599134385502  0.5890138874409061  0.9498330097240739
  0.1223835737006667  0.6311738603543162  0.9339515312294893
  0.1199731874413672  0.1228102721413151  0.0921917323834478
  0.3777549099649846  0.1310865718900658  0.4335935509528710
  0.6267883202122420  0.6643886631133995  0.0762831347461344
  0.3713292208997032  0.0889300228561325  0.4495568783052093
  0.1264557590672410  0.1649733855734965  0.0763156355789647
  0.3801097627131043  0.6228057964809111  0.5923777315166205
  0.8031260345304858  0.9775930262382104  0.2895639177787928
  0.8045081056145591  0.7759170348578266  0.7368562577648063
  0.6968562755785754  0.4775451670442266  0.7892063815502510
  0.6956530590052026  0.2759310510171531  0.2364041006527415
  0.1910656841620622  0.7761021243243249  0.2376369242465159
  0.3106662745184678  0.4778509645965343  0.2890734498398189
  0.1892762851042846  0.9778260560369674  0.7891503212735600
  0.3090768467736069  0.2760546217477184  0.7370827492701295
  0.7511987496106372  0.1053989253282595  0.2716331156171705
  0.7525903826630014  0.6481242538841343  0.7547310776923339
  0.7488953589804623  0.6053682906309206  0.7716106852646405
  0.7475489256915893  0.1481475635588083  0.2545828321034591
  0.2483688217745978  0.6483694960276836  0.2548928286178764
  0.2542078404021026  0.6056052438252308  0.2714093028232654
  0.2458949672651016  0.1055663415662522  0.7711761507945880
  0.2517777924660791  0.1483266347186358  0.7545915650405632
  0.0420465489735946  0.8768434907887439  0.0132546744708151
  0.9517951558009443  0.8768493079585014  0.5135340992958319
  0.4579737697533872  0.3768424909196355  0.5128275477733553
  0.5478584581074557  0.3768064389962831  0.0129420155051747
  0.4284332261172494  0.1412993992888829  0.3032593019440668
  0.9204015623704436  0.5657922354009273  0.3323615728856382
  0.9183622198123729  0.1877387002995476  0.6941723921509393
  0.5796812507489051  0.0658017688498589  0.8325778166194695
  0.5818905520596402  0.6876867058930145  0.1945851310703901
  0.5724281097411250  0.6118542557737001  0.2227895272110345
  0.0717204288717141  0.6414096783731225  0.8036869734134910
  0.0692394866844026  0.1125997547164630  0.2224852562260651
  0.9297899223342299  0.6416305137908864  0.3040367963311326
  0.0825218891607946  0.1884280738941655  0.1946845037264424
  0.0847480541189825  0.5655844292975019  0.8314624261661478
  0.4175619068746954  0.6884145391537544  0.6949881332475698
  0.4308053039052169  0.6125780942037835  0.7226386638398594
  0.5704455084519893  0.1416314042543760  0.8039163745491109
  0.9277503275385470  0.1119125686147271  0.7226602202354542
  0.4153606147944515  0.0654856699498225  0.3312134973194532
  0.7822535072328520  0.4547912030941745  0.0668242063791382
  0.2235571051380703  0.2987841560384723  0.4594761746722611
  0.4431588756476401  0.4665572169728804  0.0042155337315677
  0.0582105894356957  0.7871482963597956  0.5221694570627875
  0.2751444598736015  0.9552284861436178  0.0669295275845130
  0.4419755124487281  0.2870918797753390  0.0214782400948224
  0.9358647252438814  0.9665335673316235  0.0049887478373307
  0.7181169969558425  0.7986433043223258  0.4597257300587785
  0.0566219611712100  0.9665568248389818  0.5045539345231731
  0.5643162133663182  0.4665150654549635  0.5045528834062267
  0.7818883514420776  0.2986638131092505  0.9591847933459476
  0.7175840464988994  0.9548502176477314  0.5671752460563511
  0.5624714404157700  0.2870005872198078  0.5206234412825452
  0.2249691227779067  0.4552652781463422  0.5669857052973910
  0.2764859440873835  0.7988242668811480  0.9599440234046313
  0.9376940025083016  0.7869848016537020  0.0209472072086001
  0.9191280251150928  0.9181977519957343  0.1809551787491799
  0.8486802134796676  0.9142913957468082  0.3581019602234718
  0.9201256592936815  0.8353490833983983  0.8452718474513006
  0.5808482702565030  0.4181749320753454  0.6805391967314449
  0.6506577261192916  0.3392589008625038  0.1679567949312002
  0.1448626584572708  0.8393349021076446  0.1685962646189338
  0.6511745413469257  0.4142540122845730  0.8577194411318843
  0.5798598165985780  0.3353485172481925  0.3448234772274787
  0.3556219612210327  0.4145467480493679  0.3580889597638901
  0.0744245465353188  0.8354217055460964  0.3457546705294519
  0.1442900348919807  0.9145385579058782  0.8583261214490818
  0.3550593734392749  0.3393027002724267  0.6680836225168107
  0.8492485351698065  0.8392556205120343  0.6684682891500273
  0.0737613160415975  0.9183557211250815  0.6811655411534900
  0.4255012589197520  0.3353844074355834  0.8451896967527333
  0.4260318961965908  0.4183527597567931  0.1807902894513447
  0.7668663698069764  0.0201417320892716  0.2995104066745142
  0.7683777151503790  0.7333700411923161  0.7271090358694039
  0.7331495067890188  0.5200903922863702  0.7991830578569434
  0.7318656341711716  0.2333833016515499  0.2266657088683957
  0.2284846700056136  0.7336288194848350  0.2280354889144931
  0.2738009528339589  0.5203482499172338  0.2984033238069088
  0.2262046360241001  0.0203140340860699  0.7983429155837669
  0.2717146191993507  0.2335813760532375  0.7275996763220576
  0.6375115006651271  0.0051710475418005  0.0013074685933461
  0.8928706303259304  0.0363591768870535  0.5997662862112918
  0.8947961768476915  0.7171979067857208  0.4271401434978657
  0.6071444114009807  0.5363040669696488  0.0995274054107327
  0.6057056412093402  0.2171906391771969  0.9265899731856564
  0.3569869711116027  0.7489336026706894  0.5268187969395939
  0.8622359506487385  0.5051332109647149  0.5006595722946088
  0.8613840382639566  0.2483888087866504  0.5247326431222348
  0.1454597688978438  0.5050514344679229  0.9994765101130909
  0.1026570508968021  0.7170871555807850  0.9278251309150818
  0.0995040617872007  0.0368654042430592  0.0978692765898472
  0.3979565542384620  0.2170022525759947  0.4276814042127768
  0.6391270621337029  0.7483756648227029  0.0254978219688340
  0.3545347477905167  0.0049744565171395  0.4993389905320100
  0.1431393736339217  0.2489166807668965  0.0263867343217825
  0.4004850834568927  0.5368499680571759  0.5979130448028513
 
  0.00000000E+00  0.00000000E+00  0.00000000E+00
  0.00000000E+00  0.00000000E+00  0.00000000E+00
  0.00000000E+00  0.00000000E+00  0.00000000E+00
  0.00000000E+00  0.00000000E+00  0.00000000E+00
  0.00000000E+00  0.00000000E+00  0.00000000E+00
  0.00000000E+00  0.00000000E+00  0.00000000E+00
  0.00000000E+00  0.00000000E+00  0.00000000E+00
  0.00000000E+00  0.00000000E+00  0.00000000E+00
  0.00000000E+00  0.00000000E+00  0.00000000E+00
  0.00000000E+00  0.00000000E+00  0.00000000E+00
  0.00000000E+00  0.00000000E+00  0.00000000E+00
  0.00000000E+00  0.00000000E+00  0.00000000E+00
  0.00000000E+00  0.00000000E+00  0.00000000E+00
  0.00000000E+00  0.00000000E+00  0.00000000E+00
  0.00000000E+00  0.00000000E+00  0.00000000E+00
  0.00000000E+00  0.00000000E+00  0.00000000E+00
  0.00000000E+00  0.00000000E+00  0.00000000E+00
  0.00000000E+00  0.00000000E+00  0.00000000E+00
  0.00000000E+00  0.00000000E+00  0.00000000E+00
  0.00000000E+00  0.00000000E+00  0.00000000E+00
  0.00000000E+00  0.00000000E+00  0.00000000E+00
  0.00000000E+00  0.00000000E+00  0.00000000E+00
  0.00000000E+00  0.00000000E+00  0.00000000E+00
  0.00000000E+00  0.00000000E+00  0.00000000E+00
  0.00000000E+00  0.00000000E+00  0.00000000E+00
  0.00000000E+00  0.00000000E+00  0.00000000E+00
  0.00000000E+00  0.00000000E+00  0.00000000E+00
  0.00000000E+00  0.00000000E+00  0.00000000E+00
  0.00000000E+00  0.00000000E+00  0.00000000E+00
  0.00000000E+00  0.00000000E+00  0.00000000E+00
  0.00000000E+00  0.00000000E+00  0.00000000E+00
  0.00000000E+00  0.00000000E+00  0.00000000E+00
  0.00000000E+00  0.00000000E+00  0.00000000E+00
  0.00000000E+00  0.00000000E+00  0.00000000E+00
  0.00000000E+00  0.00000000E+00  0.00000000E+00
  0.00000000E+00  0.00000000E+00  0.00000000E+00
  0.00000000E+00  0.00000000E+00  0.00000000E+00
  0.00000000E+00  0.00000000E+00  0.00000000E+00
  0.00000000E+00  0.00000000E+00  0.00000000E+00
  0.00000000E+00  0.00000000E+00  0.00000000E+00
  0.00000000E+00  0.00000000E+00  0.00000000E+00
  0.00000000E+00  0.00000000E+00  0.00000000E+00
  0.00000000E+00  0.00000000E+00  0.00000000E+00
  0.00000000E+00  0.00000000E+00  0.00000000E+00
  0.00000000E+00  0.00000000E+00  0.00000000E+00
  0.00000000E+00  0.00000000E+00  0.00000000E+00
  0.00000000E+00  0.00000000E+00  0.00000000E+00
  0.00000000E+00  0.00000000E+00  0.00000000E+00
  0.00000000E+00  0.00000000E+00  0.00000000E+00
  0.00000000E+00  0.00000000E+00  0.00000000E+00
  0.00000000E+00  0.00000000E+00  0.00000000E+00
  0.00000000E+00  0.00000000E+00  0.00000000E+00
  0.00000000E+00  0.00000000E+00  0.00000000E+00
  0.00000000E+00  0.00000000E+00  0.00000000E+00
  0.00000000E+00  0.00000000E+00  0.00000000E+00
  0.00000000E+00  0.00000000E+00  0.00000000E+00
  0.00000000E+00  0.00000000E+00  0.00000000E+00
  0.00000000E+00  0.00000000E+00  0.00000000E+00
  0.00000000E+00  0.00000000E+00  0.00000000E+00
  0.00000000E+00  0.00000000E+00  0.00000000E+00
  0.00000000E+00  0.00000000E+00  0.00000000E+00
  0.00000000E+00  0.00000000E+00  0.00000000E+00
  0.00000000E+00  0.00000000E+00  0.00000000E+00
  0.00000000E+00  0.00000000E+00  0.00000000E+00
  0.00000000E+00  0.00000000E+00  0.00000000E+00
  0.00000000E+00  0.00000000E+00  0.00000000E+00
  0.00000000E+00  0.00000000E+00  0.00000000E+00
  0.00000000E+00  0.00000000E+00  0.00000000E+00
  0.00000000E+00  0.00000000E+00  0.00000000E+00
  0.00000000E+00  0.00000000E+00  0.00000000E+00
  0.00000000E+00  0.00000000E+00  0.00000000E+00
  0.00000000E+00  0.00000000E+00  0.00000000E+00
  0.00000000E+00  0.00000000E+00  0.00000000E+00
  0.00000000E+00  0.00000000E+00  0.00000000E+00
  0.00000000E+00  0.00000000E+00  0.00000000E+00
  0.00000000E+00  0.00000000E+00  0.00000000E+00
  0.00000000E+00  0.00000000E+00  0.00000000E+00
  0.00000000E+00  0.00000000E+00  0.00000000E+00
  0.00000000E+00  0.00000000E+00  0.00000000E+00
  0.00000000E+00  0.00000000E+00  0.00000000E+00
  0.00000000E+00  0.00000000E+00  0.00000000E+00
  0.00000000E+00  0.00000000E+00  0.00000000E+00
  0.00000000E+00  0.00000000E+00  0.00000000E+00
  0.00000000E+00  0.00000000E+00  0.00000000E+00
  0.00000000E+00  0.00000000E+00  0.00000000E+00
  0.00000000E+00  0.00000000E+00  0.00000000E+00
  0.00000000E+00  0.00000000E+00  0.00000000E+00
  0.00000000E+00  0.00000000E+00  0.00000000E+00
  0.00000000E+00  0.00000000E+00  0.00000000E+00
  0.00000000E+00  0.00000000E+00  0.00000000E+00
  0.00000000E+00  0.00000000E+00  0.00000000E+00
  0.00000000E+00  0.00000000E+00  0.00000000E+00
  0.00000000E+00  0.00000000E+00  0.00000000E+00
  0.00000000E+00  0.00000000E+00  0.00000000E+00
  0.00000000E+00  0.00000000E+00  0.00000000E+00
  0.00000000E+00  0.00000000E+00  0.00000000E+00
  0.00000000E+00  0.00000000E+00  0.00000000E+00
  0.00000000E+00  0.00000000E+00  0.00000000E+00
  0.00000000E+00  0.00000000E+00  0.00000000E+00
  0.00000000E+00  0.00000000E+00  0.00000000E+00
  0.00000000E+00  0.00000000E+00  0.00000000E+00
  0.00000000E+00  0.00000000E+00  0.00000000E+00
  0.00000000E+00  0.00000000E+00  0.00000000E+00
  0.00000000E+00  0.00000000E+00  0.00000000E+00
  0.00000000E+00  0.00000000E+00  0.00000000E+00
  0.00000000E+00  0.00000000E+00  0.00000000E+00
  0.00000000E+00  0.00000000E+00  0.00000000E+00
  0.00000000E+00  0.00000000E+00  0.00000000E+00
  0.00000000E+00  0.00000000E+00  0.00000000E+00
  0.00000000E+00  0.00000000E+00  0.00000000E+00
  0.00000000E+00  0.00000000E+00  0.00000000E+00
  0.00000000E+00  0.00000000E+00  0.00000000E+00
  0.00000000E+00  0.00000000E+00  0.00000000E+00
  0.00000000E+00  0.00000000E+00  0.00000000E+00
  0.00000000E+00  0.00000000E+00  0.00000000E+00
  0.00000000E+00  0.00000000E+00  0.00000000E+00
  0.00000000E+00  0.00000000E+00  0.00000000E+00
  0.00000000E+00  0.00000000E+00  0.00000000E+00
  0.00000000E+00  0.00000000E+00  0.00000000E+00
  0.00000000E+00  0.00000000E+00  0.00000000E+00
  0.00000000E+00  0.00000000E+00  0.00000000E+00
  0.00000000E+00  0.00000000E+00  0.00000000E+00
  0.00000000E+00  0.00000000E+00  0.00000000E+00
  0.00000000E+00  0.00000000E+00  0.00000000E+00
  0.00000000E+00  0.00000000E+00  0.00000000E+00
  0.00000000E+00  0.00000000E+00  0.00000000E+00
  0.00000000E+00  0.00000000E+00  0.00000000E+00
  0.00000000E+00  0.00000000E+00  0.00000000E+00
  0.00000000E+00  0.00000000E+00  0.00000000E+00
  0.00000000E+00  0.00000000E+00  0.00000000E+00
  0.00000000E+00  0.00000000E+00  0.00000000E+00
  0.00000000E+00  0.00000000E+00  0.00000000E+00
  0.00000000E+00  0.00000000E+00  0.00000000E+00
  0.00000000E+00  0.00000000E+00  0.00000000E+00
  0.00000000E+00  0.00000000E+00  0.00000000E+00
  0.00000000E+00  0.00000000E+00  0.00000000E+00
  0.00000000E+00  0.00000000E+00  0.00000000E+00
  0.00000000E+00  0.00000000E+00  0.00000000E+00
  0.00000000E+00  0.00000000E+00  0.00000000E+00
  0.00000000E+00  0.00000000E+00  0.00000000E+00
  0.00000000E+00  0.00000000E+00  0.00000000E+00
  0.00000000E+00  0.00000000E+00  0.00000000E+00
  0.00000000E+00  0.00000000E+00  0.00000000E+00
  0.00000000E+00  0.00000000E+00  0.00000000E+00
  0.00000000E+00  0.00000000E+00  0.00000000E+00
  0.00000000E+00  0.00000000E+00  0.00000000E+00
  0.00000000E+00  0.00000000E+00  0.00000000E+00
  0.00000000E+00  0.00000000E+00  0.00000000E+00
  0.00000000E+00  0.00000000E+00  0.00000000E+00
  0.00000000E+00  0.00000000E+00  0.00000000E+00
  0.00000000E+00  0.00000000E+00  0.00000000E+00
  0.00000000E+00  0.00000000E+00  0.00000000E+00
  0.00000000E+00  0.00000000E+00  0.00000000E+00
  0.00000000E+00  0.00000000E+00  0.00000000E+00
  0.00000000E+00  0.00000000E+00  0.00000000E+00
  0.00000000E+00  0.00000000E+00  0.00000000E+00
