FeH_5                                   
   1.00000000000000     
    17.7249525311994489    0.0027718052605083   -0.0050237093283768
     0.0028169914846412   30.5929897536236268    2.1234559221223366
    -0.0019469781653115    0.4263721954553318    5.4356995871969875
   C    Fe   H    N    O 
    80     4    32    24    16
Direct
  0.8651864986523208  0.9658337464027724  0.1009314866661555
  0.9301030182102892  0.9783091713832661  0.4360559222463110
  0.8615667778634872  0.8177883451399310  0.8977720900052191
  0.6340780738480305  0.4653023839239410  0.6105658535247187
  0.5741935572491741  0.3040946090838546  0.0738777609495997
  0.0690165436636221  0.8026279375895555  0.0661095714515838
  0.5688735555977971  0.4782146855623211  0.9440570977876988
  0.6384130797834473  0.3180495443521068  0.4074303940721791
  0.4254478347868940  0.4766532430877319  0.4455048448953534
  0.1339013315391711  0.8154931396420224  0.4005846513321814
  0.0740091855319420  0.9768624415576141  0.9360589093973388
  0.4307257780058364  0.3024223617026038  0.5733971361999295
  0.9257405934720992  0.8040757083832588  0.5638730319812808
  0.1383038768317135  0.9629651158161607  0.6027729142221929
  0.3656819157626217  0.3149060739623621  0.9080411447532697
  0.3612545504588667  0.4629396245649531  0.1114172791593901
  0.7870948398136690  0.0420538555607735  0.4504186804593289
  0.8595988590682850  0.0718061593330717  0.0655342763685098
  0.8536077945866580  0.7120062311623983  0.9409077613139090
  0.6393790335756933  0.5712518199070615  0.5695946085029604
  0.6473690256339637  0.2121759300238537  0.4493891814429176
  0.2123561339543372  0.7387871381622091  0.0569697384656678
  0.7122843525509310  0.5420372863683696  0.9550168765879761
  0.7194311860877676  0.2418471637151853  0.0633372731886013
  0.2807083233543963  0.5394716449970218  0.4551766096865251
  0.1394125877976151  0.7095325698071164  0.4418941994168222
  0.1472115275600174  0.0688264126585523  0.5616256414844116
  0.3605230284898298  0.2088644638776671  0.9441449507392292
  0.7810588234866813  0.7411854598260064  0.5546665600910998
  0.2195564933709448  0.0390161709522872  0.9473083197536809
  0.2878652648549931  0.2386567748474064  0.5591981168048221
  0.3533514660500288  0.5687601283078507  0.0696776517955726
  0.7513301381066100  0.0857348620928988  0.4447315434541466
  0.8242997844677689  0.1153672499710012  0.0719528643448015
  0.8176070801542110  0.6685367555214228  0.9385716029927664
  0.6752319069900565  0.6147602541212933  0.5723292915183649
  0.6831757080511522  0.1687255271924002  0.4443994844764134
  0.2487155544368918  0.6951874366858135  0.0665490526560504
  0.7485836498118132  0.5856409601023813  0.9455417962888646
  0.7560135053990251  0.1983359281588974  0.0711820707758406
  0.2442370539244152  0.5830569794442937  0.4456297207971431
  0.1753295259950036  0.6660288912208472  0.4392677751969174
  0.1832829052860561  0.1121941408547471  0.5663673549150090
  0.3250461076029154  0.1653461464173702  0.9380261179032487
  0.7443812863179389  0.6976494911550688  0.5650317797011439
  0.2562802440098153  0.0824832256017487  0.9394220614014017
  0.2519358861968684  0.1950370546761135  0.5652266565372983
  0.3175251500084926  0.6122527693455524  0.0726667284689313
  0.6980944524610351  0.0920262457530754  0.6241213850599721
  0.8434046265428563  0.1507955770701983  0.8926434856493159
  0.8365556021835658  0.6333891800096509  0.1200153715040457
  0.6562069815621925  0.6499180818228751  0.3910598639718259
  0.6641963001590625  0.1333240672760212  0.6240205667645213
  0.3024454379662416  0.6887288752053635  0.8890053557604318
  0.8022220824219204  0.5921450261939754  0.1234619025992174
  0.8093972143157515  0.1920643958180648  0.8922209741417433
  0.1906453591862487  0.5895757118325307  0.6234861712847604
  0.1563582301617004  0.6308447370138381  0.6202851354728054
  0.1644851855968739  0.1475848822062531  0.3862941980940491
  0.3441622747980162  0.1298774082821907  0.1171984420262717
  0.6906467214729801  0.6911457040497098  0.3873772815438272
  0.3099216933477749  0.0886652941213839  0.1179603209935749
  0.1986375963490019  0.1888042854150669  0.3857519743282438
  0.3366653142690836  0.6474608222674973  0.8919961429469438
  0.8756861305370549  0.9963975807024283  0.2648740204147373
  0.8708929003574397  0.7868508353342563  0.7354580572976133
  0.6233537820639938  0.4961118988591551  0.7728484947224885
  0.6292868285770226  0.2870604454954702  0.2453647732883368
  0.1232587622740766  0.7846697702501544  0.2383293510645643
  0.3704961582244550  0.4938492511362114  0.2739465084083363
  0.1291514226820567  0.9939158009361861  0.7650913774838415
  0.3764535136704481  0.2842849844223423  0.7446682908790550
  0.7710757210441912  0.1210538771641865  0.2584886794207506
  0.7639526136829247  0.6626428661762986  0.7535542708725131
  0.7289076599194004  0.6206703106503610  0.7573032069843677
  0.7364546889908041  0.1630661896021692  0.2580151947371192
  0.2289441995159365  0.6601170189430903  0.2543021212997516
  0.2639085373351264  0.6181200280225596  0.2576811370678485
  0.2367157599793828  0.1177819689255841  0.7526314351646661
  0.2715944591372903  0.1597305284301953  0.7518103232906697
  0.9743158809437134  0.8907867020907005  0.9994712097178535
  0.0248645477069118  0.8903620208094338  0.5002034859264484
  0.5249145357758636  0.3905540533100265  0.5092477816889271
  0.4742694208860030  0.3900833331027016  0.0095377773064840
  0.3856848741611287  0.1351336389252751  0.2574244341877190
  0.8164355755267749  0.5644678388378068  0.2652085625546761
  0.8235912823881719  0.2199329689975755  0.7517877266989288
  0.6837731371883180  0.0641311918258651  0.7641910615415384
  0.6764654270316299  0.7188087907860563  0.2454859821207833
  0.6145847950292946  0.6444026379399332  0.2516359915448518
  0.1148437068044785  0.6363634227030488  0.7598728691417662
  0.1231608358238390  0.1422680274582504  0.2455836290742397
  0.8781366761553286  0.6389274778389904  0.2595162478090600
  0.1845246240535943  0.2166915083410572  0.2452251867245181
  0.1764140844856641  0.5618831356654823  0.7650391334440130
  0.3168061024868010  0.7164596253250011  0.7478956524151101
  0.3782633937067246  0.6419310930774387  0.7526880681182107
  0.6229206651706605  0.1386913106699055  0.7646454498268156
  0.8846555919513861  0.1454404420274216  0.7519046301582719
  0.3241531865799416  0.0607657216701867  0.2582482752134609
  0.5444634209831989  0.4918338255143979  0.0988945949826032
  0.4550317217505722  0.2890287121866280  0.4176425804039354
  0.3253684174178417  0.4642934528850802  0.9488040867161729
  0.1698221995773253  0.8136778711912740  0.5633591197532297
  0.0504131564226995  0.9908369538687438  0.0909559405937088
  0.3296631078453629  0.3129207216452059  0.0705004222577372
  0.8292021556633600  0.9678110237913202  0.9382247556283829
  0.9493576931018737  0.7901672334770353  0.4088098153548643
  0.1743049788243241  0.9642189406689994  0.4406298256940886
  0.6701453149461258  0.4670785792066781  0.4482873419520175
  0.5506245603677939  0.2900854363955361  0.9189821857525970
  0.9543445171863993  0.9916903486171833  0.5920173495196295
  0.6743645821733608  0.3168181870809548  0.5698109797437780
  0.4490498156431642  0.4905797037032471  0.6005977203217086
  0.0447695623336628  0.7890295492235069  0.9108672898976451
  0.8256848715021832  0.8164176102075160  0.0602610821170586
  0.9108285156335896  0.9311037731980676  0.1724060241682821
  0.9506366040347558  0.9387850696236555  0.3776827501099405
  0.9083002966628797  0.8519274358437627  0.8251069361654899
  0.5885276366401584  0.4306042583815000  0.6830143620387261
  0.5519575812590247  0.3434530457256528  0.1303083110025938
  0.0487182623872826  0.8423447114458114  0.1223247273235444
  0.5485345987279473  0.4385452321883676  0.8872892143185211
  0.5913531344932750  0.3520494632901432  0.3346094891743689
  0.4475035686225013  0.4372895926920037  0.3886612618211487
  0.0885223543282123  0.8502563403604881  0.3271746995266511
  0.0517717903525536  0.9375381798260491  0.8790953359741280
  0.4509431415085814  0.3420280469697445  0.6312649426127308
  0.9476568956489615  0.8434813434145312  0.6205472044824916
  0.0911957928419938  0.9289845312111851  0.6748931962088989
  0.4110578563263729  0.3497123445813770  0.8362326598358294
  0.4081365807914494  0.4288405436784686  0.1840051708891011
  0.8394670052435842  0.0379107781782011  0.2596263818030096
  0.8337706769678661  0.7455465239245811  0.7443565778906489
  0.6595874988450632  0.5376517421271743  0.7653972823038018
  0.6668219869368244  0.2458962171839119  0.2535296906974338
  0.1595433444014560  0.7431308135629493  0.2461554062589357
  0.3333356103389704  0.5351411599772931  0.2654121033292469
  0.1667337718264719  0.0350562390713520  0.7573544117661939
  0.3403449766908722  0.2427536702179651  0.7499601277853074
  0.7723068201722469  0.0104825175390104  0.6097814806975066
  0.9040003579931692  0.0647582430855564  0.9025268876814394
  0.8984613024874832  0.7192278480351888  0.1024084335976667
  0.5944824207943853  0.5640133389700566  0.4082391532341916
  0.6028773095982842  0.2192243204352593  0.6121384865198323
  0.2269344019247512  0.7700992499549244  0.8957195554049875
  0.7268682099257688  0.5107452307436162  0.1164935007760590
  0.7334933130778793  0.2732968975426431  0.9023948563919078
  0.2664468876316306  0.5081827055166315  0.6169217688172708
  0.0944773739656597  0.7167557306255929  0.6030115197296482
  0.1025142923068287  0.0618614546715506  0.3991335466248742
  0.4050438129970715  0.2158870473384482  0.1070327864023923
  0.7668774805731857  0.7724056607277987  0.3923107030158590
  0.2337333583686885  0.0075374680001730  0.1080404322629818
  0.2731369348235333  0.2702282674435423  0.3996854699136776
  0.3982105958724418  0.5615685579221505  0.9082810430326447
 
  0.00000000E+00  0.00000000E+00  0.00000000E+00
  0.00000000E+00  0.00000000E+00  0.00000000E+00
  0.00000000E+00  0.00000000E+00  0.00000000E+00
  0.00000000E+00  0.00000000E+00  0.00000000E+00
  0.00000000E+00  0.00000000E+00  0.00000000E+00
  0.00000000E+00  0.00000000E+00  0.00000000E+00
  0.00000000E+00  0.00000000E+00  0.00000000E+00
  0.00000000E+00  0.00000000E+00  0.00000000E+00
  0.00000000E+00  0.00000000E+00  0.00000000E+00
  0.00000000E+00  0.00000000E+00  0.00000000E+00
  0.00000000E+00  0.00000000E+00  0.00000000E+00
  0.00000000E+00  0.00000000E+00  0.00000000E+00
  0.00000000E+00  0.00000000E+00  0.00000000E+00
  0.00000000E+00  0.00000000E+00  0.00000000E+00
  0.00000000E+00  0.00000000E+00  0.00000000E+00
  0.00000000E+00  0.00000000E+00  0.00000000E+00
  0.00000000E+00  0.00000000E+00  0.00000000E+00
  0.00000000E+00  0.00000000E+00  0.00000000E+00
  0.00000000E+00  0.00000000E+00  0.00000000E+00
  0.00000000E+00  0.00000000E+00  0.00000000E+00
  0.00000000E+00  0.00000000E+00  0.00000000E+00
  0.00000000E+00  0.00000000E+00  0.00000000E+00
  0.00000000E+00  0.00000000E+00  0.00000000E+00
  0.00000000E+00  0.00000000E+00  0.00000000E+00
  0.00000000E+00  0.00000000E+00  0.00000000E+00
  0.00000000E+00  0.00000000E+00  0.00000000E+00
  0.00000000E+00  0.00000000E+00  0.00000000E+00
  0.00000000E+00  0.00000000E+00  0.00000000E+00
  0.00000000E+00  0.00000000E+00  0.00000000E+00
  0.00000000E+00  0.00000000E+00  0.00000000E+00
  0.00000000E+00  0.00000000E+00  0.00000000E+00
  0.00000000E+00  0.00000000E+00  0.00000000E+00
  0.00000000E+00  0.00000000E+00  0.00000000E+00
  0.00000000E+00  0.00000000E+00  0.00000000E+00
  0.00000000E+00  0.00000000E+00  0.00000000E+00
  0.00000000E+00  0.00000000E+00  0.00000000E+00
  0.00000000E+00  0.00000000E+00  0.00000000E+00
  0.00000000E+00  0.00000000E+00  0.00000000E+00
  0.00000000E+00  0.00000000E+00  0.00000000E+00
  0.00000000E+00  0.00000000E+00  0.00000000E+00
  0.00000000E+00  0.00000000E+00  0.00000000E+00
  0.00000000E+00  0.00000000E+00  0.00000000E+00
  0.00000000E+00  0.00000000E+00  0.00000000E+00
  0.00000000E+00  0.00000000E+00  0.00000000E+00
  0.00000000E+00  0.00000000E+00  0.00000000E+00
  0.00000000E+00  0.00000000E+00  0.00000000E+00
  0.00000000E+00  0.00000000E+00  0.00000000E+00
  0.00000000E+00  0.00000000E+00  0.00000000E+00
  0.00000000E+00  0.00000000E+00  0.00000000E+00
  0.00000000E+00  0.00000000E+00  0.00000000E+00
  0.00000000E+00  0.00000000E+00  0.00000000E+00
  0.00000000E+00  0.00000000E+00  0.00000000E+00
  0.00000000E+00  0.00000000E+00  0.00000000E+00
  0.00000000E+00  0.00000000E+00  0.00000000E+00
  0.00000000E+00  0.00000000E+00  0.00000000E+00
  0.00000000E+00  0.00000000E+00  0.00000000E+00
  0.00000000E+00  0.00000000E+00  0.00000000E+00
  0.00000000E+00  0.00000000E+00  0.00000000E+00
  0.00000000E+00  0.00000000E+00  0.00000000E+00
  0.00000000E+00  0.00000000E+00  0.00000000E+00
  0.00000000E+00  0.00000000E+00  0.00000000E+00
  0.00000000E+00  0.00000000E+00  0.00000000E+00
  0.00000000E+00  0.00000000E+00  0.00000000E+00
  0.00000000E+00  0.00000000E+00  0.00000000E+00
  0.00000000E+00  0.00000000E+00  0.00000000E+00
  0.00000000E+00  0.00000000E+00  0.00000000E+00
  0.00000000E+00  0.00000000E+00  0.00000000E+00
  0.00000000E+00  0.00000000E+00  0.00000000E+00
  0.00000000E+00  0.00000000E+00  0.00000000E+00
  0.00000000E+00  0.00000000E+00  0.00000000E+00
  0.00000000E+00  0.00000000E+00  0.00000000E+00
  0.00000000E+00  0.00000000E+00  0.00000000E+00
  0.00000000E+00  0.00000000E+00  0.00000000E+00
  0.00000000E+00  0.00000000E+00  0.00000000E+00
  0.00000000E+00  0.00000000E+00  0.00000000E+00
  0.00000000E+00  0.00000000E+00  0.00000000E+00
  0.00000000E+00  0.00000000E+00  0.00000000E+00
  0.00000000E+00  0.00000000E+00  0.00000000E+00
  0.00000000E+00  0.00000000E+00  0.00000000E+00
  0.00000000E+00  0.00000000E+00  0.00000000E+00
  0.00000000E+00  0.00000000E+00  0.00000000E+00
  0.00000000E+00  0.00000000E+00  0.00000000E+00
  0.00000000E+00  0.00000000E+00  0.00000000E+00
  0.00000000E+00  0.00000000E+00  0.00000000E+00
  0.00000000E+00  0.00000000E+00  0.00000000E+00
  0.00000000E+00  0.00000000E+00  0.00000000E+00
  0.00000000E+00  0.00000000E+00  0.00000000E+00
  0.00000000E+00  0.00000000E+00  0.00000000E+00
  0.00000000E+00  0.00000000E+00  0.00000000E+00
  0.00000000E+00  0.00000000E+00  0.00000000E+00
  0.00000000E+00  0.00000000E+00  0.00000000E+00
  0.00000000E+00  0.00000000E+00  0.00000000E+00
  0.00000000E+00  0.00000000E+00  0.00000000E+00
  0.00000000E+00  0.00000000E+00  0.00000000E+00
  0.00000000E+00  0.00000000E+00  0.00000000E+00
  0.00000000E+00  0.00000000E+00  0.00000000E+00
  0.00000000E+00  0.00000000E+00  0.00000000E+00
  0.00000000E+00  0.00000000E+00  0.00000000E+00
  0.00000000E+00  0.00000000E+00  0.00000000E+00
  0.00000000E+00  0.00000000E+00  0.00000000E+00
  0.00000000E+00  0.00000000E+00  0.00000000E+00
  0.00000000E+00  0.00000000E+00  0.00000000E+00
  0.00000000E+00  0.00000000E+00  0.00000000E+00
  0.00000000E+00  0.00000000E+00  0.00000000E+00
  0.00000000E+00  0.00000000E+00  0.00000000E+00
  0.00000000E+00  0.00000000E+00  0.00000000E+00
  0.00000000E+00  0.00000000E+00  0.00000000E+00
  0.00000000E+00  0.00000000E+00  0.00000000E+00
  0.00000000E+00  0.00000000E+00  0.00000000E+00
  0.00000000E+00  0.00000000E+00  0.00000000E+00
  0.00000000E+00  0.00000000E+00  0.00000000E+00
  0.00000000E+00  0.00000000E+00  0.00000000E+00
  0.00000000E+00  0.00000000E+00  0.00000000E+00
  0.00000000E+00  0.00000000E+00  0.00000000E+00
  0.00000000E+00  0.00000000E+00  0.00000000E+00
  0.00000000E+00  0.00000000E+00  0.00000000E+00
  0.00000000E+00  0.00000000E+00  0.00000000E+00
  0.00000000E+00  0.00000000E+00  0.00000000E+00
  0.00000000E+00  0.00000000E+00  0.00000000E+00
  0.00000000E+00  0.00000000E+00  0.00000000E+00
  0.00000000E+00  0.00000000E+00  0.00000000E+00
  0.00000000E+00  0.00000000E+00  0.00000000E+00
  0.00000000E+00  0.00000000E+00  0.00000000E+00
  0.00000000E+00  0.00000000E+00  0.00000000E+00
  0.00000000E+00  0.00000000E+00  0.00000000E+00
  0.00000000E+00  0.00000000E+00  0.00000000E+00
  0.00000000E+00  0.00000000E+00  0.00000000E+00
  0.00000000E+00  0.00000000E+00  0.00000000E+00
  0.00000000E+00  0.00000000E+00  0.00000000E+00
  0.00000000E+00  0.00000000E+00  0.00000000E+00
  0.00000000E+00  0.00000000E+00  0.00000000E+00
  0.00000000E+00  0.00000000E+00  0.00000000E+00
  0.00000000E+00  0.00000000E+00  0.00000000E+00
  0.00000000E+00  0.00000000E+00  0.00000000E+00
  0.00000000E+00  0.00000000E+00  0.00000000E+00
  0.00000000E+00  0.00000000E+00  0.00000000E+00
  0.00000000E+00  0.00000000E+00  0.00000000E+00
  0.00000000E+00  0.00000000E+00  0.00000000E+00
  0.00000000E+00  0.00000000E+00  0.00000000E+00
  0.00000000E+00  0.00000000E+00  0.00000000E+00
  0.00000000E+00  0.00000000E+00  0.00000000E+00
  0.00000000E+00  0.00000000E+00  0.00000000E+00
  0.00000000E+00  0.00000000E+00  0.00000000E+00
  0.00000000E+00  0.00000000E+00  0.00000000E+00
  0.00000000E+00  0.00000000E+00  0.00000000E+00
  0.00000000E+00  0.00000000E+00  0.00000000E+00
  0.00000000E+00  0.00000000E+00  0.00000000E+00
  0.00000000E+00  0.00000000E+00  0.00000000E+00
  0.00000000E+00  0.00000000E+00  0.00000000E+00
  0.00000000E+00  0.00000000E+00  0.00000000E+00
  0.00000000E+00  0.00000000E+00  0.00000000E+00
  0.00000000E+00  0.00000000E+00  0.00000000E+00
  0.00000000E+00  0.00000000E+00  0.00000000E+00
  0.00000000E+00  0.00000000E+00  0.00000000E+00
  0.00000000E+00  0.00000000E+00  0.00000000E+00
  0.00000000E+00  0.00000000E+00  0.00000000E+00
