Zn_H                                    
   1.00000000000000     
     7.6601971993191400   -0.0007110130396663   -0.0009661924310032
     0.0020007801937561   32.3512459766776033   -4.6210871484405462
     0.0007406970288790   -0.9692696984182660    6.2726940439980501
   C    Zn   H    N    O 
    80     4    32    24    16
Direct
  0.9355880438466144  0.9584940627786906  0.1918704865268310
  0.7048917632576917  0.9495508172933853  0.3876639294431641
  0.9344289543797544  0.7974497652499437  0.8550670911568261
  0.5648801043444891  0.4583982247124467  0.6906595209144726
  0.7946146467572532  0.3061017774015085  0.1563318833389573
  0.2950800052394200  0.8061783056847318  0.1565680437984085
  0.7948738331731278  0.4495522403463141  0.8877978992822619
  0.5646242865428732  0.2973446922291316  0.3537785306792998
  0.2051864877721385  0.4496222246831252  0.3878475653762479
  0.0656906350976172  0.7974647137095729  0.3550378598612198
  0.2946317650535022  0.9495966565308009  0.8876588650263386
  0.2046239686720241  0.3061790819908268  0.6564906223410176
  0.7050759348747349  0.8060970396722666  0.6563893486755319
  0.0638510841821116  0.9585017206855042  0.6919230815210469
  0.4345905177836542  0.2973559044011509  0.8537752223556581
  0.4352666240670047  0.4584028767137269  0.1906751720229209
  0.6953416747243395  0.0283171220640241  0.1034687401547600
  0.8344360313837882  0.0532359030904033  0.4721080560460820
  0.8348999550898455  0.7025631827355383  0.5733028819353621
  0.6654155839319316  0.5531872426704680  0.9719407100661996
  0.6647509235797386  0.2025128077702760  0.0729093604401712
  0.3046660441585303  0.7274536150249418  0.4418784016118522
  0.8045749126124662  0.5283252538994034  0.6032957840774031
  0.8040004136258005  0.2274089021592260  0.4414195582190530
  0.1959004043016748  0.5283623432161377  0.1031973163323059
  0.1655572698077492  0.7026134751805841  0.0732583900494532
  0.1646749684310933  0.0532665561679124  0.9720338832017177
  0.3342664041770860  0.2025597934244772  0.5728681930063146
  0.6956298640824983  0.7274075771672130  0.9418375266316090
  0.3038143871573098  0.0283588432821276  0.6034238797019000
  0.1951433086419954  0.2274516774134057  0.9414616515696608
  0.3350254959914807  0.5532267127126431  0.4718578822639827
  0.6931314255842054  0.0730225465514778  0.0961098360136461
  0.8241722950296975  0.0975549597778311  0.4625465002771278
  0.8247222239173979  0.6582181253967931  0.5826618001024997
  0.6756739993714334  0.5975190238154440  0.9625315085011010
  0.6750093622990576  0.1581823485451253  0.0824280070894403
  0.3066664961827144  0.6827392234105432  0.4490953025685656
  0.8067054226584816  0.5730402242229999  0.5960770391293480
  0.8060113383770755  0.1827105162108182  0.4488599580129957
  0.1937860983193076  0.5730819824046094  0.0959763790080288
  0.1757142161144287  0.6582668098394109  0.0826221617014085
  0.1749959609001479  0.0975910937511983  0.9625189416381588
  0.3240990799646895  0.1582304712328906  0.5824123925520581
  0.6937248869471304  0.6826984670260927  0.9491233266490298
  0.3059625430625630  0.0730648423882343  0.5960541029658017
  0.1930839285100134  0.1827502070489189  0.9488465557215946
  0.3247415679780161  0.5975594710961190  0.4624801629076529
  0.6260967000289455  0.0823902318909404  0.9137882536772750
  0.8835502448560533  0.1308680751946056  0.6371192173137032
  0.8842124239075986  0.6249282685570066  0.4080389516028475
  0.6162743236107602  0.6308149338849844  0.1371779632981713
  0.6155761371242718  0.1248719298585783  0.9078583283266468
  0.3736142613948985  0.6733448179314223  0.6313736579304674
  0.8737207184554592  0.5824378436301245  0.4138293502449244
  0.8729711958122834  0.1733485488204423  0.6312110007568990
  0.1268023311529305  0.5824836020974971  0.9137278962436497
  0.1162660755518701  0.6249770185632570  0.9079732671119700
  0.1155982886984432  0.1309024444868427  0.1370899222766297
  0.3835405563663485  0.1249223710291716  0.4078465646588967
  0.6268154594667976  0.6733056949702032  0.1314215705272730
  0.3729703455043776  0.0824373983632114  0.4137362005276515
  0.1261364267517422  0.1733839474908194  0.1312008870333941
  0.3841527390953345  0.6308541634581815  0.6371202403725320
  0.7862919468661715  0.9786863520591993  0.2964985223954955
  0.7859342664550653  0.7770943839481177  0.7489091759772819
  0.7138069138420491  0.4786470458657917  0.7960733453990372
  0.7134630201808321  0.2770510315984751  0.2482863670966395
  0.2142896088024600  0.7771485325859473  0.2489790461028818
  0.2864331932755846  0.4786939896629718  0.2961157303617412
  0.2131036097514141  0.9787211717914772  0.7965176501638638
  0.2856538136887252  0.2771011765189257  0.7483741334320086
  0.7535244455140528  0.1063828724364768  0.2761548605496387
  0.7541474182289747  0.6493560310675335  0.7690019316634888
  0.7462990697706431  0.6063799837701680  0.7762121950182816
  0.7456101263665218  0.1493487965796305  0.2688197915713531
  0.2462581995657942  0.6493989843032963  0.2689697203152690
  0.2541263800391675  0.6064221221692208  0.2761586689230668
  0.2456316605891544  0.1064244457234764  0.7761390594500526
  0.2535131310102017  0.1493919718778542  0.7688085021183113
  0.1154408360723878  0.8779322679356483  0.0228725195562447
  0.8842981365941256  0.8779095437873252  0.5227942680358169
  0.3842241705073377  0.3779233958780068  0.5224946763350147
  0.6153546235099014  0.3778692806529307  0.0223025900457330
  0.4350581467006833  0.1325178366880664  0.2650071830628704
  0.9164322894510306  0.5559754123230860  0.2765178367728112
  0.9156437050337871  0.1998235776599202  0.7684805144552840
  0.5833959120843133  0.0559175846641082  0.7765363500694207
  0.5841204754066709  0.6997647064493719  0.2687532832243846
  0.5647655982331372  0.6232131926439166  0.2800087512583076
  0.0647473390393287  0.6325885106304128  0.7651865937828219
  0.0641126106276531  0.1233172867842356  0.2799698655993055
  0.9357107994779454  0.6325395822128286  0.2652272401095601
  0.0834846173332409  0.1998556859611682  0.2684996981430245
  0.0841727804627652  0.5560202710715529  0.7763681701220762
  0.4163056667817742  0.6998058902735167  0.7687071666656564
  0.4356769461988605  0.6232474222290847  0.7799282268301155
  0.5640905735975608  0.1324656548613774  0.7650019015810940
  0.9350625886785551  0.1232872755576722  0.7799887419866565
  0.4156312860458300  0.0559649814766772  0.2764363316219374
  0.9120637528931184  0.4526970677712612  0.9870886948784374
  0.0874506908849924  0.3030198596394484  0.5571410747042052
  0.5336310682339587  0.4714138315366725  0.1059319799165053
  0.9676934954300691  0.7844700955687074  0.4403491937464281
  0.4122069721594741  0.9527168956556551  0.9862292996314821
  0.5328705387196848  0.2843168998766643  0.9385033472759119
  0.0341704453269642  0.9715673907761726  0.1076915001044298
  0.5882516920417089  0.8028557684096711  0.5563658813852896
  0.9651826483398978  0.9715711534190206  0.6078644755189799
  0.4665952119870980  0.4714406702031155  0.6059448332216633
  0.9117692400547099  0.3029139618724130  0.0569272487092150
  0.5873366227715380  0.9526530280133088  0.4862651534066842
  0.4663366798795536  0.2843276642529560  0.4386062439510496
  0.0879802949296007  0.4527993933830672  0.4871246511073224
  0.4119564139059406  0.8029642866373408  0.0566506904753084
  0.0324481524849247  0.7844764782129019  0.9404440465557045
  0.9446909851338532  0.9194445495994614  0.2159027844853654
  0.8025658437679084  0.9133331236329809  0.3361969069688655
  0.9436734749806206  0.8364666134874952  0.8305932302438990
  0.5556464585543850  0.4193571631061559  0.7147969494084947
  0.6971784272247064  0.3423605928369184  0.2081617180116595
  0.1976593551775281  0.8424414913301987  0.2086484380102718
  0.6973454109649637  0.4133079856890092  0.8359276740714989
  0.5554642945250166  0.3363765955095062  0.3294826650146234
  0.3025352685396570  0.4133526789302167  0.3359859125098765
  0.0563138787727198  0.8364830611084670  0.3306065320357305
  0.1970477944412607  0.9133632952131592  0.8362284305805545
  0.3022170687085790  0.3424140137397131  0.7082764573521771
  0.8023449605035822  0.8423826115396906  0.7084984882818190
  0.0548840810915081  0.9194505044427572  0.7159418148035428
  0.4439140797207486  0.3363853903028797  0.8294932199115976
  0.4442890442398948  0.4193612461439642  0.2148390292739322
  0.7513938510361200  0.0217902048912535  0.3030635938135617
  0.7514651259121479  0.7339646148822823  0.7422319240470827
  0.7485558206811262  0.5217673350932159  0.8028295628251527
  0.7480913608547368  0.2339378692448690  0.2417762892033153
  0.2488822208782508  0.7340192183553924  0.2422702644936763
  0.2518160240982610  0.5218135721964430  0.3027776534065154
  0.2478309365319973  0.0218327547001849  0.8030460401743085
  0.2509464418650609  0.2339841918238434  0.7417726668970275
  0.6478849703841831  0.9983342224383378  0.9476691912349864
  0.9094031847358579  0.0438472578577915  0.6234817220493696
  0.9100900344915601  0.7120001969292318  0.4222344642827593
  0.5903873092242193  0.5437655501070466  0.1231789445049571
  0.5895702933442593  0.2119193665825492  0.9217361273144604
  0.3520909982184079  0.7574149780804689  0.5977988479888765
  0.8520812975437622  0.4983595014098654  0.4474452924064138
  0.8515375972539587  0.2573899313675412  0.5971785441887079
  0.1484100585944432  0.4983940583769737  0.9473400789531823
  0.0904559641156055  0.7120449024150375  0.9221127158232463
  0.0895948320858651  0.0438658880324567  0.1233000383247216
  0.4093916440432110  0.2119612903168786  0.4216458347734928
  0.6480606230424826  0.7573698308614780  0.0976699193239554
  0.3513109820079805  0.9983771546093010  0.4476368470352909
  0.1477720850017050  0.2574334671684042  0.0973087641567787
  0.4100877639329141  0.5437977785226877  0.6230495730548640
 
  0.00000000E+00  0.00000000E+00  0.00000000E+00
  0.00000000E+00  0.00000000E+00  0.00000000E+00
  0.00000000E+00  0.00000000E+00  0.00000000E+00
  0.00000000E+00  0.00000000E+00  0.00000000E+00
  0.00000000E+00  0.00000000E+00  0.00000000E+00
  0.00000000E+00  0.00000000E+00  0.00000000E+00
  0.00000000E+00  0.00000000E+00  0.00000000E+00
  0.00000000E+00  0.00000000E+00  0.00000000E+00
  0.00000000E+00  0.00000000E+00  0.00000000E+00
  0.00000000E+00  0.00000000E+00  0.00000000E+00
  0.00000000E+00  0.00000000E+00  0.00000000E+00
  0.00000000E+00  0.00000000E+00  0.00000000E+00
  0.00000000E+00  0.00000000E+00  0.00000000E+00
  0.00000000E+00  0.00000000E+00  0.00000000E+00
  0.00000000E+00  0.00000000E+00  0.00000000E+00
  0.00000000E+00  0.00000000E+00  0.00000000E+00
  0.00000000E+00  0.00000000E+00  0.00000000E+00
  0.00000000E+00  0.00000000E+00  0.00000000E+00
  0.00000000E+00  0.00000000E+00  0.00000000E+00
  0.00000000E+00  0.00000000E+00  0.00000000E+00
  0.00000000E+00  0.00000000E+00  0.00000000E+00
  0.00000000E+00  0.00000000E+00  0.00000000E+00
  0.00000000E+00  0.00000000E+00  0.00000000E+00
  0.00000000E+00  0.00000000E+00  0.00000000E+00
  0.00000000E+00  0.00000000E+00  0.00000000E+00
  0.00000000E+00  0.00000000E+00  0.00000000E+00
  0.00000000E+00  0.00000000E+00  0.00000000E+00
  0.00000000E+00  0.00000000E+00  0.00000000E+00
  0.00000000E+00  0.00000000E+00  0.00000000E+00
  0.00000000E+00  0.00000000E+00  0.00000000E+00
  0.00000000E+00  0.00000000E+00  0.00000000E+00
  0.00000000E+00  0.00000000E+00  0.00000000E+00
  0.00000000E+00  0.00000000E+00  0.00000000E+00
  0.00000000E+00  0.00000000E+00  0.00000000E+00
  0.00000000E+00  0.00000000E+00  0.00000000E+00
  0.00000000E+00  0.00000000E+00  0.00000000E+00
  0.00000000E+00  0.00000000E+00  0.00000000E+00
  0.00000000E+00  0.00000000E+00  0.00000000E+00
  0.00000000E+00  0.00000000E+00  0.00000000E+00
  0.00000000E+00  0.00000000E+00  0.00000000E+00
  0.00000000E+00  0.00000000E+00  0.00000000E+00
  0.00000000E+00  0.00000000E+00  0.00000000E+00
  0.00000000E+00  0.00000000E+00  0.00000000E+00
  0.00000000E+00  0.00000000E+00  0.00000000E+00
  0.00000000E+00  0.00000000E+00  0.00000000E+00
  0.00000000E+00  0.00000000E+00  0.00000000E+00
  0.00000000E+00  0.00000000E+00  0.00000000E+00
  0.00000000E+00  0.00000000E+00  0.00000000E+00
  0.00000000E+00  0.00000000E+00  0.00000000E+00
  0.00000000E+00  0.00000000E+00  0.00000000E+00
  0.00000000E+00  0.00000000E+00  0.00000000E+00
  0.00000000E+00  0.00000000E+00  0.00000000E+00
  0.00000000E+00  0.00000000E+00  0.00000000E+00
  0.00000000E+00  0.00000000E+00  0.00000000E+00
  0.00000000E+00  0.00000000E+00  0.00000000E+00
  0.00000000E+00  0.00000000E+00  0.00000000E+00
  0.00000000E+00  0.00000000E+00  0.00000000E+00
  0.00000000E+00  0.00000000E+00  0.00000000E+00
  0.00000000E+00  0.00000000E+00  0.00000000E+00
  0.00000000E+00  0.00000000E+00  0.00000000E+00
  0.00000000E+00  0.00000000E+00  0.00000000E+00
  0.00000000E+00  0.00000000E+00  0.00000000E+00
  0.00000000E+00  0.00000000E+00  0.00000000E+00
  0.00000000E+00  0.00000000E+00  0.00000000E+00
  0.00000000E+00  0.00000000E+00  0.00000000E+00
  0.00000000E+00  0.00000000E+00  0.00000000E+00
  0.00000000E+00  0.00000000E+00  0.00000000E+00
  0.00000000E+00  0.00000000E+00  0.00000000E+00
  0.00000000E+00  0.00000000E+00  0.00000000E+00
  0.00000000E+00  0.00000000E+00  0.00000000E+00
  0.00000000E+00  0.00000000E+00  0.00000000E+00
  0.00000000E+00  0.00000000E+00  0.00000000E+00
  0.00000000E+00  0.00000000E+00  0.00000000E+00
  0.00000000E+00  0.00000000E+00  0.00000000E+00
  0.00000000E+00  0.00000000E+00  0.00000000E+00
  0.00000000E+00  0.00000000E+00  0.00000000E+00
  0.00000000E+00  0.00000000E+00  0.00000000E+00
  0.00000000E+00  0.00000000E+00  0.00000000E+00
  0.00000000E+00  0.00000000E+00  0.00000000E+00
  0.00000000E+00  0.00000000E+00  0.00000000E+00
  0.00000000E+00  0.00000000E+00  0.00000000E+00
  0.00000000E+00  0.00000000E+00  0.00000000E+00
  0.00000000E+00  0.00000000E+00  0.00000000E+00
  0.00000000E+00  0.00000000E+00  0.00000000E+00
  0.00000000E+00  0.00000000E+00  0.00000000E+00
  0.00000000E+00  0.00000000E+00  0.00000000E+00
  0.00000000E+00  0.00000000E+00  0.00000000E+00
  0.00000000E+00  0.00000000E+00  0.00000000E+00
  0.00000000E+00  0.00000000E+00  0.00000000E+00
  0.00000000E+00  0.00000000E+00  0.00000000E+00
  0.00000000E+00  0.00000000E+00  0.00000000E+00
  0.00000000E+00  0.00000000E+00  0.00000000E+00
  0.00000000E+00  0.00000000E+00  0.00000000E+00
  0.00000000E+00  0.00000000E+00  0.00000000E+00
  0.00000000E+00  0.00000000E+00  0.00000000E+00
  0.00000000E+00  0.00000000E+00  0.00000000E+00
  0.00000000E+00  0.00000000E+00  0.00000000E+00
  0.00000000E+00  0.00000000E+00  0.00000000E+00
  0.00000000E+00  0.00000000E+00  0.00000000E+00
  0.00000000E+00  0.00000000E+00  0.00000000E+00
  0.00000000E+00  0.00000000E+00  0.00000000E+00
  0.00000000E+00  0.00000000E+00  0.00000000E+00
  0.00000000E+00  0.00000000E+00  0.00000000E+00
  0.00000000E+00  0.00000000E+00  0.00000000E+00
  0.00000000E+00  0.00000000E+00  0.00000000E+00
  0.00000000E+00  0.00000000E+00  0.00000000E+00
  0.00000000E+00  0.00000000E+00  0.00000000E+00
  0.00000000E+00  0.00000000E+00  0.00000000E+00
  0.00000000E+00  0.00000000E+00  0.00000000E+00
  0.00000000E+00  0.00000000E+00  0.00000000E+00
  0.00000000E+00  0.00000000E+00  0.00000000E+00
  0.00000000E+00  0.00000000E+00  0.00000000E+00
  0.00000000E+00  0.00000000E+00  0.00000000E+00
  0.00000000E+00  0.00000000E+00  0.00000000E+00
  0.00000000E+00  0.00000000E+00  0.00000000E+00
  0.00000000E+00  0.00000000E+00  0.00000000E+00
  0.00000000E+00  0.00000000E+00  0.00000000E+00
  0.00000000E+00  0.00000000E+00  0.00000000E+00
  0.00000000E+00  0.00000000E+00  0.00000000E+00
  0.00000000E+00  0.00000000E+00  0.00000000E+00
  0.00000000E+00  0.00000000E+00  0.00000000E+00
  0.00000000E+00  0.00000000E+00  0.00000000E+00
  0.00000000E+00  0.00000000E+00  0.00000000E+00
  0.00000000E+00  0.00000000E+00  0.00000000E+00
  0.00000000E+00  0.00000000E+00  0.00000000E+00
  0.00000000E+00  0.00000000E+00  0.00000000E+00
  0.00000000E+00  0.00000000E+00  0.00000000E+00
  0.00000000E+00  0.00000000E+00  0.00000000E+00
  0.00000000E+00  0.00000000E+00  0.00000000E+00
  0.00000000E+00  0.00000000E+00  0.00000000E+00
  0.00000000E+00  0.00000000E+00  0.00000000E+00
  0.00000000E+00  0.00000000E+00  0.00000000E+00
  0.00000000E+00  0.00000000E+00  0.00000000E+00
  0.00000000E+00  0.00000000E+00  0.00000000E+00
  0.00000000E+00  0.00000000E+00  0.00000000E+00
  0.00000000E+00  0.00000000E+00  0.00000000E+00
  0.00000000E+00  0.00000000E+00  0.00000000E+00
  0.00000000E+00  0.00000000E+00  0.00000000E+00
  0.00000000E+00  0.00000000E+00  0.00000000E+00
  0.00000000E+00  0.00000000E+00  0.00000000E+00
  0.00000000E+00  0.00000000E+00  0.00000000E+00
  0.00000000E+00  0.00000000E+00  0.00000000E+00
  0.00000000E+00  0.00000000E+00  0.00000000E+00
  0.00000000E+00  0.00000000E+00  0.00000000E+00
  0.00000000E+00  0.00000000E+00  0.00000000E+00
  0.00000000E+00  0.00000000E+00  0.00000000E+00
  0.00000000E+00  0.00000000E+00  0.00000000E+00
  0.00000000E+00  0.00000000E+00  0.00000000E+00
  0.00000000E+00  0.00000000E+00  0.00000000E+00
  0.00000000E+00  0.00000000E+00  0.00000000E+00
  0.00000000E+00  0.00000000E+00  0.00000000E+00
  0.00000000E+00  0.00000000E+00  0.00000000E+00
  0.00000000E+00  0.00000000E+00  0.00000000E+00
  0.00000000E+00  0.00000000E+00  0.00000000E+00
  0.00000000E+00  0.00000000E+00  0.00000000E+00
  0.00000000E+00  0.00000000E+00  0.00000000E+00
