Zn_H                                    
   1.00000000000000     
    23.4720216285750141   -0.0015008461573680   -0.0000829468677311
     0.0016272709115597   25.4221421952850299   -5.3839448681144759
     0.0010603445386753   -0.8675060709725229    6.6044946727943206
   C    Zn   H    N    O 
    80     4    32    24    16
Direct
  0.9367284700728646  0.9694350807347902  0.1583945869833556
  0.8916982038738084  0.9546877859564020  0.4288151035648724
  0.9365668440450392  0.7861967415081921  0.8860275913697038
  0.5630817545813045  0.4695679517592168  0.6592722226815084
  0.6081264244497078  0.3011003045051410  0.1163426064202184
  0.1080661378330774  0.8008944620977090  0.1156855834049324
  0.6081350682338851  0.4547977020828426  0.9295514438542654
  0.5632128588323653  0.2862512558363690  0.3867947048460039
  0.3916182523123126  0.4546947520969837  0.4297272423203324
  0.0630304084904054  0.7860786500967407  0.3859654113663211
  0.1082113383108165  0.9545788005660256  0.9287174527757855
  0.3917293840163865  0.3010907589266836  0.6166342260541882
  0.8916216141333990  0.8011282727679756  0.6158501108143000
  0.0632236356635758  0.9693830903606582  0.6583737461304437
  0.4366490655142314  0.2862951955061206  0.8871360627215168
  0.4366445219771720  0.4695463732104770  0.1594960829244059
  0.8191041799964651  0.0178902435012702  0.0944909532278970
  0.8407307391245169  0.0708463465387368  0.4772126662376905
  0.8403373270266457  0.6850446690683754  0.5668389248942702
  0.6590986056393504  0.5709558129173402  0.9777330354494254
  0.6593782987415224  0.1850044519581004  0.0672073755307352
  0.1807363494218848  0.7378080692137488  0.4499669724928594
  0.6807085925184353  0.5179454530181289  0.5950104824783224
  0.6809591939229804  0.2379261255878617  0.4500768453413428
  0.3189725654526043  0.5178176770417906  0.0954241499197153
  0.1591436158323134  0.6847461638049666  0.0672202841091760
  0.1591940440413708  0.0707509986151891  0.9774038203129152
  0.3405161571573814  0.1850250473733510  0.5675201069846523
  0.8187627704484868  0.7380189105213120  0.9496881768610379
  0.1808408282867049  0.0178420400302031  0.5945949221564391
  0.3189421123762983  0.2378794902715029  0.9504854006102263
  0.3405397247733859  0.5708544323390541  0.4781502610513257
  0.7774607990236362  0.0606672494249239  0.0926778638858465
  0.8004185322373374  0.1136459107152419  0.4650287944706406
  0.7999323580801416  0.6423121850452844  0.5790179279121617
  0.6993728170241056  0.6137552898374068  0.9653007525916806
  0.6997986752789060  0.1422632478118047  0.0791818219356344
  0.2224507775405726  0.6950972680730274  0.4518932043152901
  0.7223183989935862  0.5607220208350370  0.5929628042178052
  0.7227200471234596  0.1952183104123648  0.4516476183311369
  0.2772925592903164  0.5605394075731809  0.0934223734913573
  0.1995647618265579  0.6420352256698223  0.0794914404096474
  0.1994938909909933  0.1135694601580752  0.9652746169239421
  0.3001180836356596  0.1422596618878984  0.5794739643185594
  0.7770183662641159  0.6953209751548428  0.9514577702135725
  0.2224767471553761  0.0606305720172173  0.5928478952043221
  0.2771923994608869  0.1951570770948621  0.9520007883633710
  0.3001861691510683  0.6136019608428640  0.4657709759079012
  0.7463637161271350  0.0551310667409055  0.9091272205863206
  0.7925687774323151  0.1601521285155840  0.6417936182352335
  0.7920429405877698  0.5957937273644447  0.4023410364458471
  0.7072262733850252  0.6602827035474945  0.1419587434948681
  0.7076943526645536  0.0957695515283277  0.9023766152869754
  0.2535622330061713  0.7007063793897075  0.6354933364174968
  0.7533973444974364  0.5551568932656394  0.4093188654117270
  0.7538710225084913  0.2007751448283912  0.6351132262312689
  0.2461981424514050  0.5549234087354264  0.9098021716862021
  0.2074928127444693  0.5955118162975950  0.9028341056894362
  0.2073367213579616  0.1600613302160170  0.1420868358517993
  0.2922239226769321  0.0957885620020278  0.4025953946336145
  0.7458953846111740  0.7009038782259722  0.1350396746073699
  0.2535703136530216  0.0551327999668700  0.4092895442004973
  0.2460357975100607  0.2006904081974596  0.1354712547460650
  0.2922733913057840  0.6601190108655786  0.6424407446356568
  0.8894943568309941  0.9856652242991615  0.2926527572457189
  0.8893384209158270  0.7700724696073848  0.7516929458457255
  0.6103304117802608  0.4857749333355059  0.7933892496087154
  0.6104069505618881  0.2700582816077883  0.2522528929313594
  0.1102657379456389  0.7698718819272869  0.2516777874492035
  0.3893918301476802  0.4857049367042663  0.2936960840877703
  0.1104416296560586  0.9855848647941770  0.7926613934281832
  0.3894627789323266  0.2700738024831608  0.7526383597413258
  0.7697323161635836  0.1073253581981675  0.2754638694475560
  0.7692679492994330  0.6486644411948745  0.7686786006828754
  0.7300330951308140  0.6074087941334696  0.7756260703175073
  0.7304729187493564  0.1485843748628710  0.2687523243530947
  0.2302300128118233  0.6484284902458697  0.2691535181618860
  0.2695223919230827  0.6072178516230622  0.2761077525158555
  0.2301906910009777  0.1072697286655284  0.7757124532116961
  0.2694457230997145  0.1485397356242331  0.7690584667237843
  0.0220657398219544  0.8777919772515403  0.0224212487059745
  0.9777814708311112  0.8778582582745145  0.5225343820547863
  0.4777854714896677  0.3779458317848565  0.5234146953866201
  0.5220587027830277  0.3780052096689275  0.0234518409297735
  0.3165800190668193  0.0919076687820493  0.2589934930436186
  0.7467500833141969  0.5187516184265561  0.2711380717699612
  0.7472013388078338  0.2371448816375263  0.7734303529347457
  0.7530164535985051  0.0187517857219603  0.7708341569173669
  0.7525525913159328  0.7372969294018645  0.2732621625235012
  0.6828548240358217  0.6642043518545933  0.2855598692827570
  0.1831344626460805  0.5915472930364274  0.7591913542791247
  0.1829443719004900  0.1639423962210813  0.2856085882725026
  0.8163942817754375  0.5918536114456074  0.2586752120736762
  0.2526960302979688  0.2370439357448575  0.2738476466209150
  0.2528858590401839  0.5185236606382304  0.7716239319303142
  0.2468676288167657  0.7370965301004944  0.7737036393628998
  0.3166313537642154  0.6640614751403717  0.7860594250991468
  0.6833252099955871  0.0918568814612328  0.7588024124089188
  0.8169531567792845  0.1640511645312941  0.7853158306941097
  0.2469195496024597  0.0187718068536924  0.2709329533668381
  0.6354876922518926  0.4554238880813486  0.0619138585768582
  0.3644417034648555  0.3004623343866726  0.4840926758612198
  0.4505936562498434  0.4827586352147293  0.0291314831672267
  0.0490640246681480  0.7728600167205073  0.5162958994148070
  0.1355456395819772  0.9551808381768438  0.0611006135768335
  0.4505568370726962  0.2730870112430139  0.0175477190995466
  0.9506897126850617  0.9826131628458512  0.0279611205021268
  0.8643141475773959  0.8005710238634549  0.4834472978505104
  0.0492779875445422  0.9825865471494879  0.5279983267540587
  0.5491060978314692  0.4827517026910968  0.5288785608172617
  0.6354104245204582  0.3004966971852312  0.9837883258962066
  0.8643472239546028  0.9553169199152691  0.5612215338284727
  0.5493074822523383  0.2730157033279355  0.5171543936536693
  0.3642576484241573  0.4552684802359295  0.5620380501805258
  0.1353991926496292  0.8002728071990006  0.9832386860615401
  0.9504736392696174  0.7729362022965844  0.0163111331019294
  0.9654673734592478  0.9310544204356432  0.2111948982011356
  0.9375215884514034  0.9216734274844356  0.3760015479795484
  0.9653700114830528  0.8245995569057385  0.8335644850766428
  0.5343452596955416  0.4311942488251006  0.7121337027560273
  0.5623163167619722  0.3341169474683241  0.1695781191950871
  0.0622548978456692  0.8339139230495363  0.1686519705777982
  0.5623039367956864  0.4218005912714418  0.8768511238070857
  0.5344381813239778  0.3246840623271652  0.3344175378672816
  0.4374750963183160  0.4217265368053233  0.3768971717558145
  0.0343037852116694  0.8245021612626005  0.3333827765408230
  0.0623829088973125  0.9215782169767053  0.8758384732834017
  0.4375310464504949  0.3341121691637596  0.6697453288233390
  0.9374718294622397  0.8340845488299919  0.6689091595838050
  0.0344657153199961  0.9309958917370480  0.7110808831407951
  0.4654141720017790  0.3247121130518593  0.8346068305413468
  0.4654184985211813  0.4311747887828261  0.2122273991758803
  0.8484230070904957  0.0256550209070241  0.2885951644835814
  0.8481447131236735  0.7301732251456983  0.7555862319817308
  0.6513979650068009  0.5257501861371665  0.7891944524575578
  0.6515739863551815  0.2301205344717943  0.2560378142707052
  0.1513898587942322  0.7299365533137916  0.2558058830665644
  0.3482763865500189  0.5256502261075937  0.2896027604870994
  0.1515146110222432  0.0255811582144005  0.7887061611104258
  0.3483187309629159  0.2301163481864279  0.7564244773589905
  0.8281610558477155  0.9775857266240280  0.9371770280893230
  0.8663979803547335  0.0738363617889419  0.6414840448914774
  0.8660038022655456  0.6820252513021501  0.4024852442094939
  0.6334714240698460  0.5739516185209936  0.1421234853731121
  0.6336994142073422  0.1820124925822952  0.9029440086644058
  0.1716310527469886  0.7781338811336553  0.6071672479236767
  0.6716665673591962  0.4776053300081529  0.4378339322513796
  0.6718379560113945  0.2781917013460884  0.6075096525904229
  0.3280873281037131  0.4775074406177708  0.9382006885799257
  0.1334418059540781  0.6816844024593962  0.9029292361081360
  0.1335344386307540  0.0736984492783535  0.1416750875608628
  0.3661726326108123  0.1820691869047764  0.4032286955000970
  0.8278905852220362  0.7782976393962500  0.1070353438618312
  0.1717966026407325  0.9775516355276039  0.4372364477268817
  0.3280557634673187  0.2781206665694853  0.1079801071285758
  0.3661922140620320  0.5738906740180809  0.6424970277169990
 
  0.00000000E+00  0.00000000E+00  0.00000000E+00
  0.00000000E+00  0.00000000E+00  0.00000000E+00
  0.00000000E+00  0.00000000E+00  0.00000000E+00
  0.00000000E+00  0.00000000E+00  0.00000000E+00
  0.00000000E+00  0.00000000E+00  0.00000000E+00
  0.00000000E+00  0.00000000E+00  0.00000000E+00
  0.00000000E+00  0.00000000E+00  0.00000000E+00
  0.00000000E+00  0.00000000E+00  0.00000000E+00
  0.00000000E+00  0.00000000E+00  0.00000000E+00
  0.00000000E+00  0.00000000E+00  0.00000000E+00
  0.00000000E+00  0.00000000E+00  0.00000000E+00
  0.00000000E+00  0.00000000E+00  0.00000000E+00
  0.00000000E+00  0.00000000E+00  0.00000000E+00
  0.00000000E+00  0.00000000E+00  0.00000000E+00
  0.00000000E+00  0.00000000E+00  0.00000000E+00
  0.00000000E+00  0.00000000E+00  0.00000000E+00
  0.00000000E+00  0.00000000E+00  0.00000000E+00
  0.00000000E+00  0.00000000E+00  0.00000000E+00
  0.00000000E+00  0.00000000E+00  0.00000000E+00
  0.00000000E+00  0.00000000E+00  0.00000000E+00
  0.00000000E+00  0.00000000E+00  0.00000000E+00
  0.00000000E+00  0.00000000E+00  0.00000000E+00
  0.00000000E+00  0.00000000E+00  0.00000000E+00
  0.00000000E+00  0.00000000E+00  0.00000000E+00
  0.00000000E+00  0.00000000E+00  0.00000000E+00
  0.00000000E+00  0.00000000E+00  0.00000000E+00
  0.00000000E+00  0.00000000E+00  0.00000000E+00
  0.00000000E+00  0.00000000E+00  0.00000000E+00
  0.00000000E+00  0.00000000E+00  0.00000000E+00
  0.00000000E+00  0.00000000E+00  0.00000000E+00
  0.00000000E+00  0.00000000E+00  0.00000000E+00
  0.00000000E+00  0.00000000E+00  0.00000000E+00
  0.00000000E+00  0.00000000E+00  0.00000000E+00
  0.00000000E+00  0.00000000E+00  0.00000000E+00
  0.00000000E+00  0.00000000E+00  0.00000000E+00
  0.00000000E+00  0.00000000E+00  0.00000000E+00
  0.00000000E+00  0.00000000E+00  0.00000000E+00
  0.00000000E+00  0.00000000E+00  0.00000000E+00
  0.00000000E+00  0.00000000E+00  0.00000000E+00
  0.00000000E+00  0.00000000E+00  0.00000000E+00
  0.00000000E+00  0.00000000E+00  0.00000000E+00
  0.00000000E+00  0.00000000E+00  0.00000000E+00
  0.00000000E+00  0.00000000E+00  0.00000000E+00
  0.00000000E+00  0.00000000E+00  0.00000000E+00
  0.00000000E+00  0.00000000E+00  0.00000000E+00
  0.00000000E+00  0.00000000E+00  0.00000000E+00
  0.00000000E+00  0.00000000E+00  0.00000000E+00
  0.00000000E+00  0.00000000E+00  0.00000000E+00
  0.00000000E+00  0.00000000E+00  0.00000000E+00
  0.00000000E+00  0.00000000E+00  0.00000000E+00
  0.00000000E+00  0.00000000E+00  0.00000000E+00
  0.00000000E+00  0.00000000E+00  0.00000000E+00
  0.00000000E+00  0.00000000E+00  0.00000000E+00
  0.00000000E+00  0.00000000E+00  0.00000000E+00
  0.00000000E+00  0.00000000E+00  0.00000000E+00
  0.00000000E+00  0.00000000E+00  0.00000000E+00
  0.00000000E+00  0.00000000E+00  0.00000000E+00
  0.00000000E+00  0.00000000E+00  0.00000000E+00
  0.00000000E+00  0.00000000E+00  0.00000000E+00
  0.00000000E+00  0.00000000E+00  0.00000000E+00
  0.00000000E+00  0.00000000E+00  0.00000000E+00
  0.00000000E+00  0.00000000E+00  0.00000000E+00
  0.00000000E+00  0.00000000E+00  0.00000000E+00
  0.00000000E+00  0.00000000E+00  0.00000000E+00
  0.00000000E+00  0.00000000E+00  0.00000000E+00
  0.00000000E+00  0.00000000E+00  0.00000000E+00
  0.00000000E+00  0.00000000E+00  0.00000000E+00
  0.00000000E+00  0.00000000E+00  0.00000000E+00
  0.00000000E+00  0.00000000E+00  0.00000000E+00
  0.00000000E+00  0.00000000E+00  0.00000000E+00
  0.00000000E+00  0.00000000E+00  0.00000000E+00
  0.00000000E+00  0.00000000E+00  0.00000000E+00
  0.00000000E+00  0.00000000E+00  0.00000000E+00
  0.00000000E+00  0.00000000E+00  0.00000000E+00
  0.00000000E+00  0.00000000E+00  0.00000000E+00
  0.00000000E+00  0.00000000E+00  0.00000000E+00
  0.00000000E+00  0.00000000E+00  0.00000000E+00
  0.00000000E+00  0.00000000E+00  0.00000000E+00
  0.00000000E+00  0.00000000E+00  0.00000000E+00
  0.00000000E+00  0.00000000E+00  0.00000000E+00
  0.00000000E+00  0.00000000E+00  0.00000000E+00
  0.00000000E+00  0.00000000E+00  0.00000000E+00
  0.00000000E+00  0.00000000E+00  0.00000000E+00
  0.00000000E+00  0.00000000E+00  0.00000000E+00
  0.00000000E+00  0.00000000E+00  0.00000000E+00
  0.00000000E+00  0.00000000E+00  0.00000000E+00
  0.00000000E+00  0.00000000E+00  0.00000000E+00
  0.00000000E+00  0.00000000E+00  0.00000000E+00
  0.00000000E+00  0.00000000E+00  0.00000000E+00
  0.00000000E+00  0.00000000E+00  0.00000000E+00
  0.00000000E+00  0.00000000E+00  0.00000000E+00
  0.00000000E+00  0.00000000E+00  0.00000000E+00
  0.00000000E+00  0.00000000E+00  0.00000000E+00
  0.00000000E+00  0.00000000E+00  0.00000000E+00
  0.00000000E+00  0.00000000E+00  0.00000000E+00
  0.00000000E+00  0.00000000E+00  0.00000000E+00
  0.00000000E+00  0.00000000E+00  0.00000000E+00
  0.00000000E+00  0.00000000E+00  0.00000000E+00
  0.00000000E+00  0.00000000E+00  0.00000000E+00
  0.00000000E+00  0.00000000E+00  0.00000000E+00
  0.00000000E+00  0.00000000E+00  0.00000000E+00
  0.00000000E+00  0.00000000E+00  0.00000000E+00
  0.00000000E+00  0.00000000E+00  0.00000000E+00
  0.00000000E+00  0.00000000E+00  0.00000000E+00
  0.00000000E+00  0.00000000E+00  0.00000000E+00
  0.00000000E+00  0.00000000E+00  0.00000000E+00
  0.00000000E+00  0.00000000E+00  0.00000000E+00
  0.00000000E+00  0.00000000E+00  0.00000000E+00
  0.00000000E+00  0.00000000E+00  0.00000000E+00
  0.00000000E+00  0.00000000E+00  0.00000000E+00
  0.00000000E+00  0.00000000E+00  0.00000000E+00
  0.00000000E+00  0.00000000E+00  0.00000000E+00
  0.00000000E+00  0.00000000E+00  0.00000000E+00
  0.00000000E+00  0.00000000E+00  0.00000000E+00
  0.00000000E+00  0.00000000E+00  0.00000000E+00
  0.00000000E+00  0.00000000E+00  0.00000000E+00
  0.00000000E+00  0.00000000E+00  0.00000000E+00
  0.00000000E+00  0.00000000E+00  0.00000000E+00
  0.00000000E+00  0.00000000E+00  0.00000000E+00
  0.00000000E+00  0.00000000E+00  0.00000000E+00
  0.00000000E+00  0.00000000E+00  0.00000000E+00
  0.00000000E+00  0.00000000E+00  0.00000000E+00
  0.00000000E+00  0.00000000E+00  0.00000000E+00
  0.00000000E+00  0.00000000E+00  0.00000000E+00
  0.00000000E+00  0.00000000E+00  0.00000000E+00
  0.00000000E+00  0.00000000E+00  0.00000000E+00
  0.00000000E+00  0.00000000E+00  0.00000000E+00
  0.00000000E+00  0.00000000E+00  0.00000000E+00
  0.00000000E+00  0.00000000E+00  0.00000000E+00
  0.00000000E+00  0.00000000E+00  0.00000000E+00
  0.00000000E+00  0.00000000E+00  0.00000000E+00
  0.00000000E+00  0.00000000E+00  0.00000000E+00
  0.00000000E+00  0.00000000E+00  0.00000000E+00
  0.00000000E+00  0.00000000E+00  0.00000000E+00
  0.00000000E+00  0.00000000E+00  0.00000000E+00
  0.00000000E+00  0.00000000E+00  0.00000000E+00
  0.00000000E+00  0.00000000E+00  0.00000000E+00
  0.00000000E+00  0.00000000E+00  0.00000000E+00
  0.00000000E+00  0.00000000E+00  0.00000000E+00
  0.00000000E+00  0.00000000E+00  0.00000000E+00
  0.00000000E+00  0.00000000E+00  0.00000000E+00
  0.00000000E+00  0.00000000E+00  0.00000000E+00
  0.00000000E+00  0.00000000E+00  0.00000000E+00
  0.00000000E+00  0.00000000E+00  0.00000000E+00
  0.00000000E+00  0.00000000E+00  0.00000000E+00
  0.00000000E+00  0.00000000E+00  0.00000000E+00
  0.00000000E+00  0.00000000E+00  0.00000000E+00
  0.00000000E+00  0.00000000E+00  0.00000000E+00
  0.00000000E+00  0.00000000E+00  0.00000000E+00
  0.00000000E+00  0.00000000E+00  0.00000000E+00
  0.00000000E+00  0.00000000E+00  0.00000000E+00
  0.00000000E+00  0.00000000E+00  0.00000000E+00
  0.00000000E+00  0.00000000E+00  0.00000000E+00
  0.00000000E+00  0.00000000E+00  0.00000000E+00
  0.00000000E+00  0.00000000E+00  0.00000000E+00
  0.00000000E+00  0.00000000E+00  0.00000000E+00
