Zn_H                                    
   1.00000000000000     
    24.7241269125996723   -0.0018517448995425   -0.0016851551340846
     0.0013835160126970   24.4152477455057557   -4.2079369471904053
     0.0005500335102998   -0.3769700291647576    7.2361083661055767
   C    Zn   H    N    O 
    80     4    32    24    16
Direct
  0.9308678492372522  0.9672213520152297  0.1478516471264868
  0.9033935291033330  0.9574203054707056  0.4309429934375117
  0.9307237034935980  0.7885480437877987  0.8965688107427283
  0.5688886140880314  0.4672611354242662  0.6484378089515062
  0.5964486025048146  0.2983792768309286  0.1139768472888392
  0.0964064437530041  0.7982402230348313  0.1134362380507881
  0.5964107649862669  0.4574335892458095  0.9314483016242434
  0.5690302918477244  0.2885787217846811  0.3971236322987934
  0.4033519423586895  0.4574103576952950  0.4315652018667677
  0.0689191696070992  0.7884847148009513  0.3965681119969702
  0.0964499317106728  0.9573075594679068  0.9309061199993067
  0.4033456889369376  0.2983429359546577  0.6140419467435976
  0.9032731652364916  0.7983619404034599  0.6134630422744038
  0.0689790244432515  0.9671768606850009  0.6478970237155579
  0.4307583237258399  0.2885961360321545  0.8972583645634415
  0.4308664728195879  0.4672864254580915  0.1485962926096320
  0.8231875861959068  0.0236022294351841  0.1129427967057950
  0.8407335928754449  0.0667043686974864  0.4550283537160169
  0.8404120448266141  0.6892026358279892  0.5894708279856644
  0.6590863667176023  0.5667065518434597  0.9553266076715161
  0.6592864312859348  0.1892213626894161  0.0897955792332539
  0.1766081933372519  0.7321405254577655  0.4318186851549797
  0.6765811622096010  0.5235601154284240  0.6132148938209738
  0.6767819167299649  0.2322643016999990  0.4319663073893452
  0.3231352822189208  0.5235337288550568  0.1134981950457004
  0.1591901425487166  0.6890438310378855  0.0896609056749824
  0.1591580588371144  0.0665696774845230  0.9551254770247652
  0.3405657380628568  0.1891512444126420  0.5899626891012772
  0.8229841997500884  0.7322670194665548  0.9316540590045079
  0.1767080860724164  0.0234814130024645  0.6130303438064928
  0.3230645754442207  0.2321904233843242  0.9321159580389349
  0.3406087010054293  0.5666732000804373  0.4556177751205794
  0.7809446318192812  0.0660822683728881  0.1112698167022117
  0.7990239015305747  0.1091180682249657  0.4449135676669940
  0.7986959989207136  0.6468065575015558  0.5997085478430435
  0.7007706254502963  0.6091243221084781  0.9450207726189674
  0.7010191607088032  0.1468297338477811  0.0998836670090455
  0.2188975291446198  0.6897176123902753  0.4336544878259190
  0.7188052269243599  0.5660469632705585  0.6113643413637959
  0.7190798788983201  0.1898348576566491  0.4335800855497425
  0.2808537771308153  0.5659642707566093  0.1116957635211122
  0.2009162192872580  0.6466626186091560  0.0999612742990124
  0.2008667462797575  0.1089863985443742  0.9450499608104295
  0.2988593653097738  0.1467339402970751  0.6000576471993568
  0.7806806378003586  0.6898513409807165  0.9333954654543035
  0.2189547728822632  0.0659641772549548  0.6113821484099944
  0.2807913440169330  0.1897346503668729  0.9337323775035671
  0.2988676072161525  0.6090466491279756  0.4453582683514767
  0.7519148188962319  0.0652377646490478  0.9462849459973413
  0.7880244148809012  0.1506316544392874  0.6039490575367310
  0.7876569480018176  0.6052868212746034  0.4407319459132637
  0.7117772503405249  0.6506655605919391  0.1039681732554811
  0.7120525100276538  0.1053332984877926  0.9408245469034497
  0.2479050656765764  0.6906083989171847  0.5987158019433139
  0.7478093170225719  0.5651881003075161  0.4463110896755893
  0.7481369965843214  0.1907043482497315  0.5985253401481572
  0.2518380114842458  0.5650690156738207  0.9466457321143693
  0.2119715622677489  0.6051397582157776  0.9410014784553908
  0.2118619855500725  0.1504973398056819  0.1040912473195448
  0.2878432221317553  0.1052357256196217  0.4409888629207259
  0.7516391911621909  0.6907493833232650  0.0984067294754638
  0.2479886762869796  0.0651328295612288  0.4464114095962515
  0.2517338552342849  0.1905875572058306  0.0986825645013880
  0.2878015432551990  0.6505566427281693  0.6043311825550433
  0.8925418302816510  0.9865424630217987  0.2896102868399950
  0.8923604476059239  0.7692766157657047  0.7548533522547061
  0.6072405176242697  0.4865601348462008  0.7901072824214808
  0.6073692532666897  0.2692903241495870  0.2553511734185392
  0.1072737609633165  0.7691621736225542  0.2548897487477433
  0.3925108722730855  0.4865588374670935  0.2902993432101226
  0.1073202645980444  0.9864477524464874  0.7896403522453639
  0.3924326658305617  0.2692710927309179  0.7554715486962209
  0.7701688906008144  0.1075879822865033  0.2752600562163039
  0.7698766912032298  0.6483437039719320  0.7694367657220837
  0.7295909403915388  0.6075751048202491  0.7752933973248588
  0.7298677424051760  0.1483527779343063  0.2695504063509162
  0.2297308029464844  0.6482228045355427  0.2697112005270554
  0.2700440233054522  0.6074854028650236  0.2756253774404698
  0.2297187499942268  0.1074691604126201  0.7754023482557528
  0.2700107320803014  0.1482430701706221  0.7697062726667170
  0.0124704747249353  0.8778520803852743  0.0223182770153016
  0.9873052926526924  0.8778969568570218  0.5223370164527381
  0.4873107591664194  0.3779233661434205  0.5229266718254664
  0.5124803817412840  0.3779401372335656  0.0229462087716499
  0.3106445510754696  0.1047277432961664  0.3119375703899934
  0.7385574715955485  0.5329661026700521  0.3216200719833466
  0.7388850421475297  0.2229022969858718  0.7232864428776793
  0.7611619070296314  0.0330362893555431  0.8215368205599560
  0.7608866320656062  0.7229722121971704  0.2230839480271740
  0.6889620252629101  0.6512119642191934  0.2330137865470263
  0.1891816550414163  0.6045790167775991  0.8118933984148384
  0.1890269794998787  0.1510201391811492  0.2330823197337963
  0.8104328403405319  0.6047528973823262  0.3116079625668746
  0.2609671297360450  0.2227821819805769  0.2234587885282835
  0.2611119401832482  0.5328431648479466  0.8219875325032717
  0.2386088497122998  0.7228047745217978  0.7234288211331688
  0.3105876684610962  0.6511192543682682  0.7334437013819723
  0.6892514994598287  0.1048094175315413  0.8117688058999093
  0.8108561129105354  0.1511719939968330  0.7329501286799385
  0.2387522537990776  0.0329269089288147  0.3216569890721459
  0.6157039897567103  0.4601486385621243  0.0676571633101091
  0.3840928807339949  0.2955908886606409  0.4777459461251325
  0.4367542027072915  0.4782437658919179  0.0132417001705818
  0.0630461141751582  0.7775580599989667  0.5319684453102056
  0.1157297855667565  0.9599999834165871  0.0671264461682028
  0.4365971221757334  0.2776749247616408  0.0326823524103972
  0.9367331341816865  0.9781418793940091  0.0124261852798284
  0.8839941545100913  0.7956555715223885  0.4772300404120031
  0.0631172966023215  0.9781249346688980  0.5125103345456310
  0.5629954812752445  0.4781950342079710  0.5130482081112575
  0.6157009973933398  0.2956512214390372  0.9776861866615221
  0.8841210852116603  0.9601478523397375  0.5671936385430456
  0.5631938563611953  0.2776329831739304  0.5325117861998265
  0.3840517080787649  0.4600969723774782  0.5677515247342768
  0.1156786301401667  0.7954844155356824  0.9771654185422349
  0.9365732068299053  0.7776008253587392  0.0319417288650712
  0.9623631229214666  0.9291067806269737  0.2010196944706308
  0.9453303722168513  0.9228439274207219  0.3751162617629618
  0.9622906364976700  0.8266006673102666  0.8433468609315966
  0.5373957465871939  0.4291546910451984  0.7016622997702484
  0.5544723293402285  0.3329023870597894  0.1698062057511578
  0.0544458678712374  0.8327982208870495  0.1691705413226856
  0.5544586428007605  0.4228724927912708  0.8756960574105008
  0.5374704906479195  0.3266444620686855  0.3439644999919693
  0.4453116839012026  0.4228620648356909  0.3757510167346112
  0.0374044580698367  0.8265669982704225  0.3433114714915462
  0.0544868761649937  0.9227692406143220  0.8750679826017702
  0.4453076212874407  0.3328904999852966  0.6698472353447684
  0.9452694656325207  0.8328713014787326  0.6692263038823967
  0.0374561805983546  0.9290746928853864  0.7010192491425684
  0.4623064161404642  0.3266634896426268  0.8440400082707598
  0.4623708993063786  0.4291735586516978  0.2017363892320745
  0.8513804035815511  0.0266282721096545  0.2862018936406798
  0.8511442434969609  0.7292444209529378  0.7583204439041893
  0.6484086560051594  0.5266243505650934  0.7865469125669691
  0.6485828607106541  0.2292489506454416  0.2587035174722416
  0.1484617032789899  0.7291079365508324  0.2584476345427689
  0.3513107541412737  0.5266026894555225  0.2868208880160452
  0.1485046810588102  0.0265116928914253  0.7862698518708768
  0.3512460086314917  0.2292004970860262  0.7588458347611891
  0.8336096154132235  0.9874294418690539  0.9720576349767356
  0.8649946568158384  0.0659136911328986  0.6024645950276053
  0.8646108922318589  0.6899915605731621  0.4419259013254475
  0.6348725931215995  0.5659140387916466  0.1028368369061639
  0.6350574000422213  0.1900186042300902  0.9423158816672057
  0.1661088699571920  0.7682731303917620  0.5727319338925199
  0.6661546533544609  0.4873526479910737  0.4724367775038374
  0.6663110152578113  0.2683799946697718  0.5729512707720446
  0.3336157779675446  0.4873710083019844  0.9726496081870621
  0.1349906242141259  0.6898076122875310  0.9420953311806599
  0.1348984010852021  0.0657611261899973  0.1025532666784059
  0.3647913900324866  0.1899530469813584  0.4424837834669262
  0.8334965322367154  0.7683730051641007  0.0726229548678887
  0.1662843969880186  0.9873123810360696  0.4721420469807427
  0.3335329578422233  0.2683042710107628  0.0731184502070192
  0.3648554585672485  0.5659145318854044  0.6031019131496151
 
  0.00000000E+00  0.00000000E+00  0.00000000E+00
  0.00000000E+00  0.00000000E+00  0.00000000E+00
  0.00000000E+00  0.00000000E+00  0.00000000E+00
  0.00000000E+00  0.00000000E+00  0.00000000E+00
  0.00000000E+00  0.00000000E+00  0.00000000E+00
  0.00000000E+00  0.00000000E+00  0.00000000E+00
  0.00000000E+00  0.00000000E+00  0.00000000E+00
  0.00000000E+00  0.00000000E+00  0.00000000E+00
  0.00000000E+00  0.00000000E+00  0.00000000E+00
  0.00000000E+00  0.00000000E+00  0.00000000E+00
  0.00000000E+00  0.00000000E+00  0.00000000E+00
  0.00000000E+00  0.00000000E+00  0.00000000E+00
  0.00000000E+00  0.00000000E+00  0.00000000E+00
  0.00000000E+00  0.00000000E+00  0.00000000E+00
  0.00000000E+00  0.00000000E+00  0.00000000E+00
  0.00000000E+00  0.00000000E+00  0.00000000E+00
  0.00000000E+00  0.00000000E+00  0.00000000E+00
  0.00000000E+00  0.00000000E+00  0.00000000E+00
  0.00000000E+00  0.00000000E+00  0.00000000E+00
  0.00000000E+00  0.00000000E+00  0.00000000E+00
  0.00000000E+00  0.00000000E+00  0.00000000E+00
  0.00000000E+00  0.00000000E+00  0.00000000E+00
  0.00000000E+00  0.00000000E+00  0.00000000E+00
  0.00000000E+00  0.00000000E+00  0.00000000E+00
  0.00000000E+00  0.00000000E+00  0.00000000E+00
  0.00000000E+00  0.00000000E+00  0.00000000E+00
  0.00000000E+00  0.00000000E+00  0.00000000E+00
  0.00000000E+00  0.00000000E+00  0.00000000E+00
  0.00000000E+00  0.00000000E+00  0.00000000E+00
  0.00000000E+00  0.00000000E+00  0.00000000E+00
  0.00000000E+00  0.00000000E+00  0.00000000E+00
  0.00000000E+00  0.00000000E+00  0.00000000E+00
  0.00000000E+00  0.00000000E+00  0.00000000E+00
  0.00000000E+00  0.00000000E+00  0.00000000E+00
  0.00000000E+00  0.00000000E+00  0.00000000E+00
  0.00000000E+00  0.00000000E+00  0.00000000E+00
  0.00000000E+00  0.00000000E+00  0.00000000E+00
  0.00000000E+00  0.00000000E+00  0.00000000E+00
  0.00000000E+00  0.00000000E+00  0.00000000E+00
  0.00000000E+00  0.00000000E+00  0.00000000E+00
  0.00000000E+00  0.00000000E+00  0.00000000E+00
  0.00000000E+00  0.00000000E+00  0.00000000E+00
  0.00000000E+00  0.00000000E+00  0.00000000E+00
  0.00000000E+00  0.00000000E+00  0.00000000E+00
  0.00000000E+00  0.00000000E+00  0.00000000E+00
  0.00000000E+00  0.00000000E+00  0.00000000E+00
  0.00000000E+00  0.00000000E+00  0.00000000E+00
  0.00000000E+00  0.00000000E+00  0.00000000E+00
  0.00000000E+00  0.00000000E+00  0.00000000E+00
  0.00000000E+00  0.00000000E+00  0.00000000E+00
  0.00000000E+00  0.00000000E+00  0.00000000E+00
  0.00000000E+00  0.00000000E+00  0.00000000E+00
  0.00000000E+00  0.00000000E+00  0.00000000E+00
  0.00000000E+00  0.00000000E+00  0.00000000E+00
  0.00000000E+00  0.00000000E+00  0.00000000E+00
  0.00000000E+00  0.00000000E+00  0.00000000E+00
  0.00000000E+00  0.00000000E+00  0.00000000E+00
  0.00000000E+00  0.00000000E+00  0.00000000E+00
  0.00000000E+00  0.00000000E+00  0.00000000E+00
  0.00000000E+00  0.00000000E+00  0.00000000E+00
  0.00000000E+00  0.00000000E+00  0.00000000E+00
  0.00000000E+00  0.00000000E+00  0.00000000E+00
  0.00000000E+00  0.00000000E+00  0.00000000E+00
  0.00000000E+00  0.00000000E+00  0.00000000E+00
  0.00000000E+00  0.00000000E+00  0.00000000E+00
  0.00000000E+00  0.00000000E+00  0.00000000E+00
  0.00000000E+00  0.00000000E+00  0.00000000E+00
  0.00000000E+00  0.00000000E+00  0.00000000E+00
  0.00000000E+00  0.00000000E+00  0.00000000E+00
  0.00000000E+00  0.00000000E+00  0.00000000E+00
  0.00000000E+00  0.00000000E+00  0.00000000E+00
  0.00000000E+00  0.00000000E+00  0.00000000E+00
  0.00000000E+00  0.00000000E+00  0.00000000E+00
  0.00000000E+00  0.00000000E+00  0.00000000E+00
  0.00000000E+00  0.00000000E+00  0.00000000E+00
  0.00000000E+00  0.00000000E+00  0.00000000E+00
  0.00000000E+00  0.00000000E+00  0.00000000E+00
  0.00000000E+00  0.00000000E+00  0.00000000E+00
  0.00000000E+00  0.00000000E+00  0.00000000E+00
  0.00000000E+00  0.00000000E+00  0.00000000E+00
  0.00000000E+00  0.00000000E+00  0.00000000E+00
  0.00000000E+00  0.00000000E+00  0.00000000E+00
  0.00000000E+00  0.00000000E+00  0.00000000E+00
  0.00000000E+00  0.00000000E+00  0.00000000E+00
  0.00000000E+00  0.00000000E+00  0.00000000E+00
  0.00000000E+00  0.00000000E+00  0.00000000E+00
  0.00000000E+00  0.00000000E+00  0.00000000E+00
  0.00000000E+00  0.00000000E+00  0.00000000E+00
  0.00000000E+00  0.00000000E+00  0.00000000E+00
  0.00000000E+00  0.00000000E+00  0.00000000E+00
  0.00000000E+00  0.00000000E+00  0.00000000E+00
  0.00000000E+00  0.00000000E+00  0.00000000E+00
  0.00000000E+00  0.00000000E+00  0.00000000E+00
  0.00000000E+00  0.00000000E+00  0.00000000E+00
  0.00000000E+00  0.00000000E+00  0.00000000E+00
  0.00000000E+00  0.00000000E+00  0.00000000E+00
  0.00000000E+00  0.00000000E+00  0.00000000E+00
  0.00000000E+00  0.00000000E+00  0.00000000E+00
  0.00000000E+00  0.00000000E+00  0.00000000E+00
  0.00000000E+00  0.00000000E+00  0.00000000E+00
  0.00000000E+00  0.00000000E+00  0.00000000E+00
  0.00000000E+00  0.00000000E+00  0.00000000E+00
  0.00000000E+00  0.00000000E+00  0.00000000E+00
  0.00000000E+00  0.00000000E+00  0.00000000E+00
  0.00000000E+00  0.00000000E+00  0.00000000E+00
  0.00000000E+00  0.00000000E+00  0.00000000E+00
  0.00000000E+00  0.00000000E+00  0.00000000E+00
  0.00000000E+00  0.00000000E+00  0.00000000E+00
  0.00000000E+00  0.00000000E+00  0.00000000E+00
  0.00000000E+00  0.00000000E+00  0.00000000E+00
  0.00000000E+00  0.00000000E+00  0.00000000E+00
  0.00000000E+00  0.00000000E+00  0.00000000E+00
  0.00000000E+00  0.00000000E+00  0.00000000E+00
  0.00000000E+00  0.00000000E+00  0.00000000E+00
  0.00000000E+00  0.00000000E+00  0.00000000E+00
  0.00000000E+00  0.00000000E+00  0.00000000E+00
  0.00000000E+00  0.00000000E+00  0.00000000E+00
  0.00000000E+00  0.00000000E+00  0.00000000E+00
  0.00000000E+00  0.00000000E+00  0.00000000E+00
  0.00000000E+00  0.00000000E+00  0.00000000E+00
  0.00000000E+00  0.00000000E+00  0.00000000E+00
  0.00000000E+00  0.00000000E+00  0.00000000E+00
  0.00000000E+00  0.00000000E+00  0.00000000E+00
  0.00000000E+00  0.00000000E+00  0.00000000E+00
  0.00000000E+00  0.00000000E+00  0.00000000E+00
  0.00000000E+00  0.00000000E+00  0.00000000E+00
  0.00000000E+00  0.00000000E+00  0.00000000E+00
  0.00000000E+00  0.00000000E+00  0.00000000E+00
  0.00000000E+00  0.00000000E+00  0.00000000E+00
  0.00000000E+00  0.00000000E+00  0.00000000E+00
  0.00000000E+00  0.00000000E+00  0.00000000E+00
  0.00000000E+00  0.00000000E+00  0.00000000E+00
  0.00000000E+00  0.00000000E+00  0.00000000E+00
  0.00000000E+00  0.00000000E+00  0.00000000E+00
  0.00000000E+00  0.00000000E+00  0.00000000E+00
  0.00000000E+00  0.00000000E+00  0.00000000E+00
  0.00000000E+00  0.00000000E+00  0.00000000E+00
  0.00000000E+00  0.00000000E+00  0.00000000E+00
  0.00000000E+00  0.00000000E+00  0.00000000E+00
  0.00000000E+00  0.00000000E+00  0.00000000E+00
  0.00000000E+00  0.00000000E+00  0.00000000E+00
  0.00000000E+00  0.00000000E+00  0.00000000E+00
  0.00000000E+00  0.00000000E+00  0.00000000E+00
  0.00000000E+00  0.00000000E+00  0.00000000E+00
  0.00000000E+00  0.00000000E+00  0.00000000E+00
  0.00000000E+00  0.00000000E+00  0.00000000E+00
  0.00000000E+00  0.00000000E+00  0.00000000E+00
  0.00000000E+00  0.00000000E+00  0.00000000E+00
  0.00000000E+00  0.00000000E+00  0.00000000E+00
  0.00000000E+00  0.00000000E+00  0.00000000E+00
  0.00000000E+00  0.00000000E+00  0.00000000E+00
  0.00000000E+00  0.00000000E+00  0.00000000E+00
  0.00000000E+00  0.00000000E+00  0.00000000E+00
  0.00000000E+00  0.00000000E+00  0.00000000E+00
  0.00000000E+00  0.00000000E+00  0.00000000E+00
  0.00000000E+00  0.00000000E+00  0.00000000E+00
