Zn_H                                    
   1.00000000000000     
    24.3481789806143354   -0.0012334638229112    0.0000266184301188
     0.0017500850747014   24.7180044406060446   -4.6541303794470217
     0.0010585247021113   -0.5562308520093916    7.0136498299649004
   C    Zn   H    N    O 
    80     4    32    24    16
Direct
  0.9330619811104981  0.9681460006938849  0.1506861813220723
  0.8994898010291408  0.9565794747420782  0.4314678217328876
  0.9328223545039478  0.7875268884500741  0.8934658322581939
  0.5667332684884272  0.4681949620664696  0.6514361801160362
  0.6004513177457014  0.2992629187037608  0.1135889384494675
  0.1003646758701535  0.7990740343015545  0.1129031316835167
  0.6003347352631465  0.4565919755540264  0.9320876377994836
  0.5669075425754215  0.2875596383871226  0.3942036324565450
  0.3994019989220732  0.4565246757714405  0.4322596976773596
  0.0667688813877305  0.7874780316441203  0.3935995829597729
  0.1003959342733651  0.9564195212812905  0.9313796599741266
  0.3994000324543023  0.2991833167599083  0.6137055578373136
  0.8993030934482107  0.7992376424284515  0.6128725672424267
  0.0668360053580841  0.9681057925525494  0.6507939713496924
  0.4329225845543192  0.2875604580690094  0.8944252652823224
  0.4330177315555588  0.4682128820870801  0.1517145202727050
  0.8223285916571328  0.0216956007056481  0.1064893412296257
  0.8405487505832596  0.0682353113068004  0.4628011655265851
  0.8401636078448931  0.6876504150143745  0.5815957050523863
  0.6593034773031690  0.5682423119691222  0.9631479305120578
  0.6595254106090778  0.1876548785259189  0.0821166658448789
  0.1776121356689231  0.7341181692028229  0.4381410126992122
  0.6774432360484113  0.5216777941274202  0.6067777851700242
  0.6778494560734813  0.2342738626154102  0.4382210948251952
  0.3222177835441400  0.5215865282387284  0.1072559058958404
  0.1594331449904942  0.6874879452733538  0.0819715394741252
  0.1593688453618611  0.0680895440473819  0.9629333146159951
  0.3403831008651395  0.1875874294342310  0.5823788138646933
  0.8218670474569834  0.7343141014791499  0.9377037821810461
  0.1776054429954428  0.0215869118514220  0.6065943650460568
  0.3220289163852073  0.2341782186434855  0.9385244609690560
  0.3403835455484199  0.5682015727356600  0.4635452207093493
  0.7801089920899429  0.0641450684062974  0.1049530710397093
  0.7993431544639833  0.1108303354558018  0.4518757541753118
  0.7988879975845720  0.6451179192032868  0.5925789738251765
  0.7004730871535187  0.6108453605322168  0.9519873479795251
  0.7007971797814534  0.1451066906232512  0.0929535588467232
  0.2198247466455996  0.6916824222345710  0.4399630634117457
  0.7196192429465782  0.5641430965020859  0.6049946706369767
  0.7200521835549765  0.1918094158471533  0.4397904762060278
  0.2799748007723437  0.5640026069553628  0.1055450034327166
  0.2006682813624039  0.6449358219747765  0.0931014798696168
  0.2005801829435327  0.1106884345918573  0.9520930754152701
  0.2991174496787394  0.1450273971276488  0.5931838211680116
  0.7796926499654759  0.6918418230927301  0.9394588338955856
  0.2198182896238876  0.0640459390433605  0.6051138949503780
  0.2798497542471310  0.1916905609250534  0.9400870792527130
  0.2991420973180894  0.6107564442959230  0.4524708443151084
  0.7505365951538749  0.0615160833201855  0.9337214476653060
  0.7891970159091528  0.1542231717870663  0.6168741927851826
  0.7886817799264918  0.6017485799414501  0.4275856155436202
  0.7106359881837534  0.6542489790250769  0.1169144144207408
  0.7109800498016199  0.1017536963397845  0.9278790923728906
  0.2493776633105043  0.6943793576904653  0.6112872318903655
  0.7491426329063202  0.5615105635390663  0.4336240036455905
  0.7496586784032644  0.1944713579771857  0.6109787291668169
  0.2504222800504223  0.5613156523068739  0.9342318807503744
  0.2108764062874116  0.6015450801154429  0.9281675194839707
  0.2107030145220321  0.1540712208549095  0.1171301210364817
  0.2889413160182670  0.1016905395364702  0.4280692809335207
  0.7501380618322457  0.6945075413887949  0.1107896515450477
  0.2493897395198630  0.0614444056101178  0.4338716942129324
  0.2502322873313219  0.1943278485384070  0.1112704897938386
  0.2889302007150221  0.6541589401788173  0.6173832088857978
  0.8916752544110338  0.9863711098557459  0.2908988365953320
  0.8913962758439453  0.7694368838868613  0.7533714666785585
  0.6081407388600653  0.4863930705701804  0.7915158255108068
  0.6083350610630589  0.2694542260303763  0.2540704635379569
  0.1082042016647762  0.7693081144574236  0.2535483131848437
  0.3915905375702877  0.4863641301269510  0.2918221794965206
  0.1082385634331402  0.9862543086840674  0.7909394902098654
  0.3915204455130876  0.2694028337896910  0.7542885055098267
  0.7700745115196455  0.1075116877111810  0.2754346807163728
  0.7696595334557514  0.6484424173493011  0.7691206581439118
  0.7296792332267401  0.6075244433091171  0.7753995139028902
  0.7300647786654082  0.1484234845532058  0.2693802445659372
  0.2298897903763120  0.6482822970403248  0.2696522191802444
  0.2699065112785775  0.6073914832937604  0.2759207252638447
  0.2298509819284362  0.1073908194219229  0.7756513094968298
  0.2698504115708573  0.1483148843012998  0.7696321612822388
  0.0156966585847726  0.8777035666880550  0.0217767661090065
  0.9840868709556290  0.8778081360762258  0.5219669264049642
  0.4840844757598717  0.3778130330194145  0.5227789488387913
  0.5157187078916508  0.3778153621159248  0.0227320287228636
  0.3121685054735366  0.0999091774098275  0.2941608868689585
  0.7405320832161806  0.5277737563507614  0.3043408309239197
  0.7410982926982115  0.2282317177952606  0.7402727675219722
  0.7591266946735331  0.0277860067105422  0.8043731887666681
  0.7587087482091306  0.7282807882274014  0.2400190962662450
  0.6874411959542144  0.6560713835339698  0.2509161071338042
  0.1876739294284704  0.5997113905395608  0.7941820880750114
  0.1874587946209800  0.1558753613974204  0.2510202151862444
  0.8118879861677328  0.5999313526475945  0.2935938342894460
  0.2587722539976269  0.2280846441661026  0.2405879483638458
  0.2590302943754637  0.5275610537909401  0.8049942450927574
  0.2407655637425634  0.7281411802512636  0.7405157903440411
  0.3121281538795344  0.6560071410574082  0.7513862877168833
  0.6877480955343458  0.0999499813618883  0.7939847841908403
  0.8124263797955891  0.1560377359178915  0.7507757531544925
  0.2408023765656750  0.0277285622103705  0.3044882307443473
  0.6224254788028887  0.4585702099069238  0.0677926351265867
  0.3773264031420567  0.2972331203025362  0.4780014838239381
  0.4417136340018146  0.4800300625083267  0.0172436937649039
  0.0580788889610204  0.7757250555883672  0.5282028071302918
  0.1224730417955016  0.9583557274519237  0.0670798770662699
  0.4415786165763933  0.2757916681723600  0.0290192051748761
  0.9417457093518209  0.9799176893239689  0.0161208275014317
  0.8772241793772935  0.7973327012233824  0.4772121053429501
  0.0581642183685389  0.9799177932343355  0.5163038696648385
  0.5580428064268617  0.4799644973779564  0.5168804465941861
  0.6225336777600319  0.2973517638307683  0.9779045710046361
  0.8774147098620304  0.9585713191495842  0.5672334562233559
  0.5582488535697081  0.2757580211410726  0.5287372684708487
  0.3773079255050931  0.4584591309333845  0.5679443719597188
  0.1224629884192510  0.7971045053776820  0.9772047775848662
  0.9414730061681098  0.7757265350413292  0.0280026342794670
  0.9635559799539095  0.9299055887399987  0.2040525348431288
  0.9427164774064920  0.9225187870829572  0.3761663859603956
  0.9634307184719901  0.8256852932002161  0.8400407470486897
  0.5362405076052923  0.4299624892613991  0.7048684705840031
  0.5571408486207545  0.3332093020295446  0.1688151735670402
  0.0570703783637683  0.8330536320324384  0.1679515880992142
  0.5570939633627816  0.4225510351275332  0.8768989991206197
  0.5363169067378095  0.3257387082011718  0.3408298405990209
  0.4426655455558404  0.4225076940901928  0.3769740349402895
  0.0362203925657951  0.8256474654983492  0.3400174932325086
  0.0571397114181948  0.9224080662300693  0.8760644983931485
  0.4426830593728965  0.3331630010424433  0.6688786288219717
  0.9426251776609433  0.8331670612310944  0.6680297661634498
  0.0363098929479122  0.9298702351767716  0.7040825069357695
  0.4634906062364550  0.3257385575732883  0.8409538727869972
  0.4635288874766275  0.4299684378327413  0.2049989841324518
  0.8505654424905984  0.0264016976686392  0.2870966624404190
  0.8502005558470600  0.7294937115755147  0.7572121225119091
  0.6492480273042176  0.5264039606752675  0.7875238565182485
  0.6495154634185596  0.2294888449633419  0.2577973809578822
  0.1493596561715620  0.7293353985758344  0.2575459132339759
  0.3504375133018911  0.5263494191308595  0.2879199758981486
  0.1493656413913200  0.0262695903982788  0.7872069111536391
  0.3503658877952134  0.2294159850151090  0.7580635093795891
  0.8327236164831007  0.9841942974604834  0.9598115515717751
  0.8649374183348897  0.0687041762322025  0.6161733094698434
  0.8646110598220602  0.6871091675412728  0.4282543343610570
  0.6349796026624048  0.5687115764561739  0.1166721987440056
  0.6350647324276792  0.1871450613061185  0.9288556875261307
  0.1672380354207448  0.7716837889620081  0.5846296916659881
  0.6670542998231994  0.4841484112929919  0.4601995265084184
  0.6675538966947059  0.2718537350824306  0.5847443723582657
  0.3326437645987497  0.4840745894438001  0.9606478487272128
  0.1350569986256573  0.6869705366003416  0.9285324614932193
  0.1349579323923322  0.0685518863017123  0.1162866589706155
  0.3648567413220434  0.1870796708637243  0.4291093547001807
  0.8321551194784789  0.7719233558303671  0.0841302685673639
  0.1672201513132450  0.9841012278025545  0.4598692449872388
  0.3323007438784842  0.2717604453491020  0.0850597174213803
  0.3647804255581590  0.5687170860947646  0.6169374223125246
 
  0.00000000E+00  0.00000000E+00  0.00000000E+00
  0.00000000E+00  0.00000000E+00  0.00000000E+00
  0.00000000E+00  0.00000000E+00  0.00000000E+00
  0.00000000E+00  0.00000000E+00  0.00000000E+00
  0.00000000E+00  0.00000000E+00  0.00000000E+00
  0.00000000E+00  0.00000000E+00  0.00000000E+00
  0.00000000E+00  0.00000000E+00  0.00000000E+00
  0.00000000E+00  0.00000000E+00  0.00000000E+00
  0.00000000E+00  0.00000000E+00  0.00000000E+00
  0.00000000E+00  0.00000000E+00  0.00000000E+00
  0.00000000E+00  0.00000000E+00  0.00000000E+00
  0.00000000E+00  0.00000000E+00  0.00000000E+00
  0.00000000E+00  0.00000000E+00  0.00000000E+00
  0.00000000E+00  0.00000000E+00  0.00000000E+00
  0.00000000E+00  0.00000000E+00  0.00000000E+00
  0.00000000E+00  0.00000000E+00  0.00000000E+00
  0.00000000E+00  0.00000000E+00  0.00000000E+00
  0.00000000E+00  0.00000000E+00  0.00000000E+00
  0.00000000E+00  0.00000000E+00  0.00000000E+00
  0.00000000E+00  0.00000000E+00  0.00000000E+00
  0.00000000E+00  0.00000000E+00  0.00000000E+00
  0.00000000E+00  0.00000000E+00  0.00000000E+00
  0.00000000E+00  0.00000000E+00  0.00000000E+00
  0.00000000E+00  0.00000000E+00  0.00000000E+00
  0.00000000E+00  0.00000000E+00  0.00000000E+00
  0.00000000E+00  0.00000000E+00  0.00000000E+00
  0.00000000E+00  0.00000000E+00  0.00000000E+00
  0.00000000E+00  0.00000000E+00  0.00000000E+00
  0.00000000E+00  0.00000000E+00  0.00000000E+00
  0.00000000E+00  0.00000000E+00  0.00000000E+00
  0.00000000E+00  0.00000000E+00  0.00000000E+00
  0.00000000E+00  0.00000000E+00  0.00000000E+00
  0.00000000E+00  0.00000000E+00  0.00000000E+00
  0.00000000E+00  0.00000000E+00  0.00000000E+00
  0.00000000E+00  0.00000000E+00  0.00000000E+00
  0.00000000E+00  0.00000000E+00  0.00000000E+00
  0.00000000E+00  0.00000000E+00  0.00000000E+00
  0.00000000E+00  0.00000000E+00  0.00000000E+00
  0.00000000E+00  0.00000000E+00  0.00000000E+00
  0.00000000E+00  0.00000000E+00  0.00000000E+00
  0.00000000E+00  0.00000000E+00  0.00000000E+00
  0.00000000E+00  0.00000000E+00  0.00000000E+00
  0.00000000E+00  0.00000000E+00  0.00000000E+00
  0.00000000E+00  0.00000000E+00  0.00000000E+00
  0.00000000E+00  0.00000000E+00  0.00000000E+00
  0.00000000E+00  0.00000000E+00  0.00000000E+00
  0.00000000E+00  0.00000000E+00  0.00000000E+00
  0.00000000E+00  0.00000000E+00  0.00000000E+00
  0.00000000E+00  0.00000000E+00  0.00000000E+00
  0.00000000E+00  0.00000000E+00  0.00000000E+00
  0.00000000E+00  0.00000000E+00  0.00000000E+00
  0.00000000E+00  0.00000000E+00  0.00000000E+00
  0.00000000E+00  0.00000000E+00  0.00000000E+00
  0.00000000E+00  0.00000000E+00  0.00000000E+00
  0.00000000E+00  0.00000000E+00  0.00000000E+00
  0.00000000E+00  0.00000000E+00  0.00000000E+00
  0.00000000E+00  0.00000000E+00  0.00000000E+00
  0.00000000E+00  0.00000000E+00  0.00000000E+00
  0.00000000E+00  0.00000000E+00  0.00000000E+00
  0.00000000E+00  0.00000000E+00  0.00000000E+00
  0.00000000E+00  0.00000000E+00  0.00000000E+00
  0.00000000E+00  0.00000000E+00  0.00000000E+00
  0.00000000E+00  0.00000000E+00  0.00000000E+00
  0.00000000E+00  0.00000000E+00  0.00000000E+00
  0.00000000E+00  0.00000000E+00  0.00000000E+00
  0.00000000E+00  0.00000000E+00  0.00000000E+00
  0.00000000E+00  0.00000000E+00  0.00000000E+00
  0.00000000E+00  0.00000000E+00  0.00000000E+00
  0.00000000E+00  0.00000000E+00  0.00000000E+00
  0.00000000E+00  0.00000000E+00  0.00000000E+00
  0.00000000E+00  0.00000000E+00  0.00000000E+00
  0.00000000E+00  0.00000000E+00  0.00000000E+00
  0.00000000E+00  0.00000000E+00  0.00000000E+00
  0.00000000E+00  0.00000000E+00  0.00000000E+00
  0.00000000E+00  0.00000000E+00  0.00000000E+00
  0.00000000E+00  0.00000000E+00  0.00000000E+00
  0.00000000E+00  0.00000000E+00  0.00000000E+00
  0.00000000E+00  0.00000000E+00  0.00000000E+00
  0.00000000E+00  0.00000000E+00  0.00000000E+00
  0.00000000E+00  0.00000000E+00  0.00000000E+00
  0.00000000E+00  0.00000000E+00  0.00000000E+00
  0.00000000E+00  0.00000000E+00  0.00000000E+00
  0.00000000E+00  0.00000000E+00  0.00000000E+00
  0.00000000E+00  0.00000000E+00  0.00000000E+00
  0.00000000E+00  0.00000000E+00  0.00000000E+00
  0.00000000E+00  0.00000000E+00  0.00000000E+00
  0.00000000E+00  0.00000000E+00  0.00000000E+00
  0.00000000E+00  0.00000000E+00  0.00000000E+00
  0.00000000E+00  0.00000000E+00  0.00000000E+00
  0.00000000E+00  0.00000000E+00  0.00000000E+00
  0.00000000E+00  0.00000000E+00  0.00000000E+00
  0.00000000E+00  0.00000000E+00  0.00000000E+00
  0.00000000E+00  0.00000000E+00  0.00000000E+00
  0.00000000E+00  0.00000000E+00  0.00000000E+00
  0.00000000E+00  0.00000000E+00  0.00000000E+00
  0.00000000E+00  0.00000000E+00  0.00000000E+00
  0.00000000E+00  0.00000000E+00  0.00000000E+00
  0.00000000E+00  0.00000000E+00  0.00000000E+00
  0.00000000E+00  0.00000000E+00  0.00000000E+00
  0.00000000E+00  0.00000000E+00  0.00000000E+00
  0.00000000E+00  0.00000000E+00  0.00000000E+00
  0.00000000E+00  0.00000000E+00  0.00000000E+00
  0.00000000E+00  0.00000000E+00  0.00000000E+00
  0.00000000E+00  0.00000000E+00  0.00000000E+00
  0.00000000E+00  0.00000000E+00  0.00000000E+00
  0.00000000E+00  0.00000000E+00  0.00000000E+00
  0.00000000E+00  0.00000000E+00  0.00000000E+00
  0.00000000E+00  0.00000000E+00  0.00000000E+00
  0.00000000E+00  0.00000000E+00  0.00000000E+00
  0.00000000E+00  0.00000000E+00  0.00000000E+00
  0.00000000E+00  0.00000000E+00  0.00000000E+00
  0.00000000E+00  0.00000000E+00  0.00000000E+00
  0.00000000E+00  0.00000000E+00  0.00000000E+00
  0.00000000E+00  0.00000000E+00  0.00000000E+00
  0.00000000E+00  0.00000000E+00  0.00000000E+00
  0.00000000E+00  0.00000000E+00  0.00000000E+00
  0.00000000E+00  0.00000000E+00  0.00000000E+00
  0.00000000E+00  0.00000000E+00  0.00000000E+00
  0.00000000E+00  0.00000000E+00  0.00000000E+00
  0.00000000E+00  0.00000000E+00  0.00000000E+00
  0.00000000E+00  0.00000000E+00  0.00000000E+00
  0.00000000E+00  0.00000000E+00  0.00000000E+00
  0.00000000E+00  0.00000000E+00  0.00000000E+00
  0.00000000E+00  0.00000000E+00  0.00000000E+00
  0.00000000E+00  0.00000000E+00  0.00000000E+00
  0.00000000E+00  0.00000000E+00  0.00000000E+00
  0.00000000E+00  0.00000000E+00  0.00000000E+00
  0.00000000E+00  0.00000000E+00  0.00000000E+00
  0.00000000E+00  0.00000000E+00  0.00000000E+00
  0.00000000E+00  0.00000000E+00  0.00000000E+00
  0.00000000E+00  0.00000000E+00  0.00000000E+00
  0.00000000E+00  0.00000000E+00  0.00000000E+00
  0.00000000E+00  0.00000000E+00  0.00000000E+00
  0.00000000E+00  0.00000000E+00  0.00000000E+00
  0.00000000E+00  0.00000000E+00  0.00000000E+00
  0.00000000E+00  0.00000000E+00  0.00000000E+00
  0.00000000E+00  0.00000000E+00  0.00000000E+00
  0.00000000E+00  0.00000000E+00  0.00000000E+00
  0.00000000E+00  0.00000000E+00  0.00000000E+00
  0.00000000E+00  0.00000000E+00  0.00000000E+00
  0.00000000E+00  0.00000000E+00  0.00000000E+00
  0.00000000E+00  0.00000000E+00  0.00000000E+00
  0.00000000E+00  0.00000000E+00  0.00000000E+00
  0.00000000E+00  0.00000000E+00  0.00000000E+00
  0.00000000E+00  0.00000000E+00  0.00000000E+00
  0.00000000E+00  0.00000000E+00  0.00000000E+00
  0.00000000E+00  0.00000000E+00  0.00000000E+00
  0.00000000E+00  0.00000000E+00  0.00000000E+00
  0.00000000E+00  0.00000000E+00  0.00000000E+00
  0.00000000E+00  0.00000000E+00  0.00000000E+00
  0.00000000E+00  0.00000000E+00  0.00000000E+00
  0.00000000E+00  0.00000000E+00  0.00000000E+00
  0.00000000E+00  0.00000000E+00  0.00000000E+00
  0.00000000E+00  0.00000000E+00  0.00000000E+00
  0.00000000E+00  0.00000000E+00  0.00000000E+00
  0.00000000E+00  0.00000000E+00  0.00000000E+00
