Zn_H                                    
   1.00000000000000     
    19.0534187452505499   -0.0010770987376318   -0.0004395108799442
     0.0024218116659172   28.9672867399447647   -4.6370334973764882
     0.0007924291799717   -0.9105892441979039    6.2549492900942933
   C    Zn   H    N    O 
    80     4    32    24    16
Direct
  0.9382589088401190  0.9648922711502124  0.1525842307521117
  0.8718967535863982  0.9522605341694614  0.4203675263898816
  0.9388467245243248  0.7907061902692050  0.8925683508047371
  0.5613941022724802  0.4649064579422486  0.6524508904008997
  0.6274069087182923  0.3030710695205556  0.1243405394227963
  0.1280979086485488  0.8035854685224848  0.1250188732682034
  0.6277853688005024  0.4522950497257128  0.9201690840563117
  0.5607831990383403  0.2906713685708127  0.3920897361244187
  0.3722302878549399  0.4525882082120418  0.4201372251684958
  0.0616141407086417  0.7908838693695373  0.3923737330281654
  0.1275105560488967  0.9525869113535919  0.9203111586015638
  0.3718202164421243  0.3034596019544935  0.6245684227538959
  0.8722812747338864  0.8031363278185069  0.6248199459210397
  0.0610538865088515  0.9649968456803251  0.6522723689814285
  0.4382597894774989  0.2908413676375758  0.8921628283269172
  0.4387650518345367  0.4650236969969797  0.1522939605350473
  0.8012336099768262  0.0210272616370659  0.0957921453414983
  0.8462551409285552  0.0644199708179514  0.4766169238016786
  0.8470632685343915  0.6910659315311705  0.5696381458597912
  0.6534191899240014  0.5644227061820999  0.9767282448680845
  0.6525678482507331  0.1909683982876302  0.0691156535800630
  0.1990921605706006  0.7349130256661596  0.4490833778426975
  0.6984034152541696  0.5211019424448011  0.5957336935528588
  0.6977353197048330  0.2344053032346451  0.4496859372173390
  0.3018434377316197  0.5213614358394025  0.0953949942666057
  0.1535170489839217  0.6914431072677587  0.0690317769359723
  0.1526336359315721  0.0647235144228446  0.9756437311543209
  0.3464375992281390  0.1913362059687387  0.5688039204682198
  0.8017940709851175  0.7344790019781726  0.9501450007530181
  0.1979687272042767  0.0213110869814059  0.5952032067515773
  0.3009082965583616  0.2348055262185085  0.9489488891960107
  0.3472130384436767  0.5647604245802142  0.4757660999124056
  0.7625586783138090  0.0647573733418625  0.0942414711831248
  0.8083571396981526  0.1077316471586371  0.4649508586622062
  0.8092704626195015  0.6477268867793669  0.5813515792279063
  0.6912263169657180  0.6077634493408937  0.9650860852563525
  0.6904011595893635  0.1476450092715922  0.0809264515606216
  0.2375761370541269  0.6911241810109630  0.4507515022475559
  0.7370861874943415  0.5648334709620002  0.5943845477443972
  0.7362593813461871  0.1906428133741898  0.4515446648686421
  0.2633968496085330  0.5651645061889283  0.0937250520341806
  0.1914258477489099  0.6481239041372078  0.0804936733736952
  0.1904082015935487  0.1080780503436500  0.9639434529928437
  0.3084925367492630  0.1480298844834351  0.5802482931302464
  0.7632755023126592  0.6907048379398901  0.9518630098035814
  0.2364347616085709  0.0651051136592287  0.5934840689307208
  0.2623989561511024  0.1910290855525503  0.9506405130120612
  0.3094839480271574  0.6081352429232467  0.4640542067902231
  0.7218098460521460  0.0645599964089740  0.9116865894434980
  0.8129287636040061  0.1495082001911854  0.6408715679129244
  0.8139319266479959  0.6059480099735950  0.4054965009420215
  0.6866177409005516  0.6495238216030046  0.1410555288612443
  0.6858270368846817  0.1058681858000625  0.9050305537751484
  0.2783768863771314  0.6912816581937307  0.6331621938018728
  0.7779305018681129  0.5646389737871971  0.4120137257608789
  0.7769886796570518  0.1908255732639290  0.6341172916751461
  0.2225853370759125  0.5649937783334025  0.9113308312046158
  0.1867030484770353  0.6063374727904360  0.9046888333259204
  0.1857140962811528  0.1498586157828541  0.1397848974353266
  0.3131504087365116  0.1062541767589096  0.4043667257266677
  0.7225108377897911  0.6908634642048312  0.1343729146634587
  0.2772177107515716  0.0649260853205575  0.4109988062390570
  0.2215970215022978  0.1912001586352261  0.1330944320293028
  0.3142188577907774  0.6499218452706970  0.6398465089678780
  0.8807074841782807  0.9826748681711734  0.2891546719090172
  0.8812246848126932  0.7728479200910172  0.7565550114830586
  0.6189387405499431  0.4827088327584264  0.7889772297901345
  0.6183810051532319  0.2727643078545299  0.2559516160567554
  0.1193123406250010  0.7731977510873662  0.2563320869683068
  0.3812200632800611  0.4829242691117770  0.2886426877751234
  0.1185851857444362  0.9828977689867742  0.7886628645307141
  0.3806312638065279  0.2730951819766076  0.7559895502716216
  0.7676085795136487  0.1067094126025694  0.2763504078804502
  0.7684574688381574  0.6487446312467995  0.7698527458592253
  0.7319786218356725  0.6067751999134501  0.7765106182348589
  0.7311365272288199  0.1486722289145561  0.2695665220806234
  0.2322888261271174  0.6491423826878702  0.2688786521455953
  0.2686815118810060  0.6071444329660949  0.2755939155786180
  0.2312097235903465  0.1070753445580408  0.7754348259611206
  0.2676462077432404  0.1490540658505708  0.7687048196773105
  0.0331855601425204  0.8778913490061910  0.0221893066400156
  0.9666243102994230  0.8777772153739249  0.5220325139408288
  0.4665442458725479  0.3779037781051144  0.5220639866971979
  0.5331437047593965  0.3777743795998845  0.0218044229939736
  0.3450607819396225  0.1065571025940599  0.2616869897569956
  0.7808803137096092  0.5317994179023557  0.2743917328151682
  0.7799176248062309  0.2236654994149347  0.7717418087502637
  0.7189440171529640  0.0317224383649446  0.7740183162197738
  0.7195144368393542  0.7237050508321090  0.2719828248570835
  0.6547977961394622  0.6492009400280523  0.2838959041930380
  0.1547798911501275  0.6066514004871806  0.7620626262191195
  0.1538574116603897  0.1495379626456881  0.2825615435695212
  0.8458513861528658  0.6062321748650348  0.2628066613444915
  0.2185660818753306  0.2240482265280264  0.2706579382631631
  0.2195237050622225  0.5321335170047519  0.7738484925535474
  0.2814329537577862  0.7241383163709756  0.7706802241667816
  0.3460824000801423  0.6495910027043124  0.7825748179863297
  0.6539950947282946  0.1061717580673545  0.7622094657807210
  0.8447555256981119  0.1492128549362590  0.7837325893389107
  0.2802164536296488  0.0320630244064830  0.2734982986905692
  0.6645620479336714  0.4541197202896115  0.0538045762854082
  0.3350060076808461  0.3016210179848997  0.4910184265966393
  0.4627538798576580  0.4777877201995935  0.0249554792665663
  0.0376469678652782  0.7780182620961185  0.5194503269517341
  0.1642875571124449  0.9545157263420876  0.0540694952499834
  0.4622062965327913  0.2780058138198385  0.0193569281432033
  0.9621449700512201  0.9777305411266255  0.0253078393505319
  0.8354446367524915  0.8012092504574895  0.4912309202943419
  0.0370963768351729  0.9777348656598974  0.5247959826490245
  0.5374651968636357  0.4777377461049213  0.5252179083950494
  0.6642449425426094  0.3011299575111650  0.9907099568990176
  0.8351418458190025  0.9540797406912276  0.5540882805350691
  0.5367224303574503  0.2779326615936384  0.5194196975314327
  0.3354039622258682  0.4544957387694168  0.5537877426879021
  0.1649531858177724  0.8017976057852394  0.9916079837286063
  0.9628755736109724  0.7779649487272522  0.0199205840323629
  0.9625057784681417  0.9259940653557805  0.1993250484572471
  0.9214160241621556  0.9179250798264462  0.3619977411248883
  0.9629812174421062  0.8295476845601470  0.8450620553121482
  0.5371894750311199  0.4260004924814424  0.6992133366264781
  0.5779895103826362  0.3374841283502690  0.1821150179215607
  0.0784391903969492  0.8378302803046651  0.1828066319770798
  0.5783062913691452  0.4179417205901998  0.8618240159623767
  0.5367447945841093  0.3295568449126449  0.3447714991326762
  0.4216447869764934  0.4181776691994799  0.3621012882194208
  0.0372815759533012  0.8297163796232994  0.3452167637885708
  0.0780845187931760  0.9181877899574431  0.8623155838443495
  0.4213922443832914  0.3377576585865043  0.6824653797020446
  0.9217719988749025  0.8374953055366063  0.6824002639820037
  0.0369327748054715  0.9261207747222926  0.6994978768682643
  0.4625208188516368  0.3296949365753719  0.8450312134374514
  0.4628408381882139  0.4261235229787346  0.1993840596382981
  0.8406194166752030  0.0236173038102265  0.2890231547472411
  0.8412765290677129  0.7318819319004675  0.7570740717119477
  0.6589956187850703  0.5236647731709354  0.7889172266155029
  0.6582950530874569  0.2317845054473722  0.2565376732536464
  0.1594243735160603  0.7322704944620355  0.2563673409602671
  0.3413316580797598  0.5239333771960588  0.2883797115747413
  0.1584972434402943  0.0238908973276608  0.7882814055663232
  0.3405594496767037  0.2321590475066273  0.7561576636606659
  0.7996520688190856  0.9841759383749178  0.9392939109873453
  0.8809053928303214  0.0633969135138841  0.6390652012494655
  0.8817269198622171  0.6921210795472064  0.4072540490595955
  0.6188880239411887  0.5633434056820050  0.1393330593698749
  0.6179309108009576  0.1920152037631340  0.9066878086234524
  0.2010294585638306  0.7718505238615805  0.6050649028876478
  0.7000194861895963  0.4842702185768388  0.4391453721329626
  0.6995111012214892  0.2713258986535436  0.6057801886550038
  0.2999616662609910  0.4844626160613501  0.9391844350775997
  0.1186162860252651  0.6924664272769760  0.9070763032731364
  0.1179098188682204  0.0636853715168257  0.1379452524300859
  0.3813357706860359  0.1923543022849685  0.4068013936427235
  0.7999813391190216  0.7713818506090817  0.1063331583539266
  0.1998106001209479  0.9844159597633251  0.4389792065619673
  0.2990012157652515  0.2717371159791924  0.1049759608074652
  0.3819263399724093  0.5636990950511844  0.6380236645994586
 
  0.00000000E+00  0.00000000E+00  0.00000000E+00
  0.00000000E+00  0.00000000E+00  0.00000000E+00
  0.00000000E+00  0.00000000E+00  0.00000000E+00
  0.00000000E+00  0.00000000E+00  0.00000000E+00
  0.00000000E+00  0.00000000E+00  0.00000000E+00
  0.00000000E+00  0.00000000E+00  0.00000000E+00
  0.00000000E+00  0.00000000E+00  0.00000000E+00
  0.00000000E+00  0.00000000E+00  0.00000000E+00
  0.00000000E+00  0.00000000E+00  0.00000000E+00
  0.00000000E+00  0.00000000E+00  0.00000000E+00
  0.00000000E+00  0.00000000E+00  0.00000000E+00
  0.00000000E+00  0.00000000E+00  0.00000000E+00
  0.00000000E+00  0.00000000E+00  0.00000000E+00
  0.00000000E+00  0.00000000E+00  0.00000000E+00
  0.00000000E+00  0.00000000E+00  0.00000000E+00
  0.00000000E+00  0.00000000E+00  0.00000000E+00
  0.00000000E+00  0.00000000E+00  0.00000000E+00
  0.00000000E+00  0.00000000E+00  0.00000000E+00
  0.00000000E+00  0.00000000E+00  0.00000000E+00
  0.00000000E+00  0.00000000E+00  0.00000000E+00
  0.00000000E+00  0.00000000E+00  0.00000000E+00
  0.00000000E+00  0.00000000E+00  0.00000000E+00
  0.00000000E+00  0.00000000E+00  0.00000000E+00
  0.00000000E+00  0.00000000E+00  0.00000000E+00
  0.00000000E+00  0.00000000E+00  0.00000000E+00
  0.00000000E+00  0.00000000E+00  0.00000000E+00
  0.00000000E+00  0.00000000E+00  0.00000000E+00
  0.00000000E+00  0.00000000E+00  0.00000000E+00
  0.00000000E+00  0.00000000E+00  0.00000000E+00
  0.00000000E+00  0.00000000E+00  0.00000000E+00
  0.00000000E+00  0.00000000E+00  0.00000000E+00
  0.00000000E+00  0.00000000E+00  0.00000000E+00
  0.00000000E+00  0.00000000E+00  0.00000000E+00
  0.00000000E+00  0.00000000E+00  0.00000000E+00
  0.00000000E+00  0.00000000E+00  0.00000000E+00
  0.00000000E+00  0.00000000E+00  0.00000000E+00
  0.00000000E+00  0.00000000E+00  0.00000000E+00
  0.00000000E+00  0.00000000E+00  0.00000000E+00
  0.00000000E+00  0.00000000E+00  0.00000000E+00
  0.00000000E+00  0.00000000E+00  0.00000000E+00
  0.00000000E+00  0.00000000E+00  0.00000000E+00
  0.00000000E+00  0.00000000E+00  0.00000000E+00
  0.00000000E+00  0.00000000E+00  0.00000000E+00
  0.00000000E+00  0.00000000E+00  0.00000000E+00
  0.00000000E+00  0.00000000E+00  0.00000000E+00
  0.00000000E+00  0.00000000E+00  0.00000000E+00
  0.00000000E+00  0.00000000E+00  0.00000000E+00
  0.00000000E+00  0.00000000E+00  0.00000000E+00
  0.00000000E+00  0.00000000E+00  0.00000000E+00
  0.00000000E+00  0.00000000E+00  0.00000000E+00
  0.00000000E+00  0.00000000E+00  0.00000000E+00
  0.00000000E+00  0.00000000E+00  0.00000000E+00
  0.00000000E+00  0.00000000E+00  0.00000000E+00
  0.00000000E+00  0.00000000E+00  0.00000000E+00
  0.00000000E+00  0.00000000E+00  0.00000000E+00
  0.00000000E+00  0.00000000E+00  0.00000000E+00
  0.00000000E+00  0.00000000E+00  0.00000000E+00
  0.00000000E+00  0.00000000E+00  0.00000000E+00
  0.00000000E+00  0.00000000E+00  0.00000000E+00
  0.00000000E+00  0.00000000E+00  0.00000000E+00
  0.00000000E+00  0.00000000E+00  0.00000000E+00
  0.00000000E+00  0.00000000E+00  0.00000000E+00
  0.00000000E+00  0.00000000E+00  0.00000000E+00
  0.00000000E+00  0.00000000E+00  0.00000000E+00
  0.00000000E+00  0.00000000E+00  0.00000000E+00
  0.00000000E+00  0.00000000E+00  0.00000000E+00
  0.00000000E+00  0.00000000E+00  0.00000000E+00
  0.00000000E+00  0.00000000E+00  0.00000000E+00
  0.00000000E+00  0.00000000E+00  0.00000000E+00
  0.00000000E+00  0.00000000E+00  0.00000000E+00
  0.00000000E+00  0.00000000E+00  0.00000000E+00
  0.00000000E+00  0.00000000E+00  0.00000000E+00
  0.00000000E+00  0.00000000E+00  0.00000000E+00
  0.00000000E+00  0.00000000E+00  0.00000000E+00
  0.00000000E+00  0.00000000E+00  0.00000000E+00
  0.00000000E+00  0.00000000E+00  0.00000000E+00
  0.00000000E+00  0.00000000E+00  0.00000000E+00
  0.00000000E+00  0.00000000E+00  0.00000000E+00
  0.00000000E+00  0.00000000E+00  0.00000000E+00
  0.00000000E+00  0.00000000E+00  0.00000000E+00
  0.00000000E+00  0.00000000E+00  0.00000000E+00
  0.00000000E+00  0.00000000E+00  0.00000000E+00
  0.00000000E+00  0.00000000E+00  0.00000000E+00
  0.00000000E+00  0.00000000E+00  0.00000000E+00
  0.00000000E+00  0.00000000E+00  0.00000000E+00
  0.00000000E+00  0.00000000E+00  0.00000000E+00
  0.00000000E+00  0.00000000E+00  0.00000000E+00
  0.00000000E+00  0.00000000E+00  0.00000000E+00
  0.00000000E+00  0.00000000E+00  0.00000000E+00
  0.00000000E+00  0.00000000E+00  0.00000000E+00
  0.00000000E+00  0.00000000E+00  0.00000000E+00
  0.00000000E+00  0.00000000E+00  0.00000000E+00
  0.00000000E+00  0.00000000E+00  0.00000000E+00
  0.00000000E+00  0.00000000E+00  0.00000000E+00
  0.00000000E+00  0.00000000E+00  0.00000000E+00
  0.00000000E+00  0.00000000E+00  0.00000000E+00
  0.00000000E+00  0.00000000E+00  0.00000000E+00
  0.00000000E+00  0.00000000E+00  0.00000000E+00
  0.00000000E+00  0.00000000E+00  0.00000000E+00
  0.00000000E+00  0.00000000E+00  0.00000000E+00
  0.00000000E+00  0.00000000E+00  0.00000000E+00
  0.00000000E+00  0.00000000E+00  0.00000000E+00
  0.00000000E+00  0.00000000E+00  0.00000000E+00
  0.00000000E+00  0.00000000E+00  0.00000000E+00
  0.00000000E+00  0.00000000E+00  0.00000000E+00
  0.00000000E+00  0.00000000E+00  0.00000000E+00
  0.00000000E+00  0.00000000E+00  0.00000000E+00
  0.00000000E+00  0.00000000E+00  0.00000000E+00
  0.00000000E+00  0.00000000E+00  0.00000000E+00
  0.00000000E+00  0.00000000E+00  0.00000000E+00
  0.00000000E+00  0.00000000E+00  0.00000000E+00
  0.00000000E+00  0.00000000E+00  0.00000000E+00
  0.00000000E+00  0.00000000E+00  0.00000000E+00
  0.00000000E+00  0.00000000E+00  0.00000000E+00
  0.00000000E+00  0.00000000E+00  0.00000000E+00
  0.00000000E+00  0.00000000E+00  0.00000000E+00
  0.00000000E+00  0.00000000E+00  0.00000000E+00
  0.00000000E+00  0.00000000E+00  0.00000000E+00
  0.00000000E+00  0.00000000E+00  0.00000000E+00
  0.00000000E+00  0.00000000E+00  0.00000000E+00
  0.00000000E+00  0.00000000E+00  0.00000000E+00
  0.00000000E+00  0.00000000E+00  0.00000000E+00
  0.00000000E+00  0.00000000E+00  0.00000000E+00
  0.00000000E+00  0.00000000E+00  0.00000000E+00
  0.00000000E+00  0.00000000E+00  0.00000000E+00
  0.00000000E+00  0.00000000E+00  0.00000000E+00
  0.00000000E+00  0.00000000E+00  0.00000000E+00
  0.00000000E+00  0.00000000E+00  0.00000000E+00
  0.00000000E+00  0.00000000E+00  0.00000000E+00
  0.00000000E+00  0.00000000E+00  0.00000000E+00
  0.00000000E+00  0.00000000E+00  0.00000000E+00
  0.00000000E+00  0.00000000E+00  0.00000000E+00
  0.00000000E+00  0.00000000E+00  0.00000000E+00
  0.00000000E+00  0.00000000E+00  0.00000000E+00
  0.00000000E+00  0.00000000E+00  0.00000000E+00
  0.00000000E+00  0.00000000E+00  0.00000000E+00
  0.00000000E+00  0.00000000E+00  0.00000000E+00
  0.00000000E+00  0.00000000E+00  0.00000000E+00
  0.00000000E+00  0.00000000E+00  0.00000000E+00
  0.00000000E+00  0.00000000E+00  0.00000000E+00
  0.00000000E+00  0.00000000E+00  0.00000000E+00
  0.00000000E+00  0.00000000E+00  0.00000000E+00
  0.00000000E+00  0.00000000E+00  0.00000000E+00
  0.00000000E+00  0.00000000E+00  0.00000000E+00
  0.00000000E+00  0.00000000E+00  0.00000000E+00
  0.00000000E+00  0.00000000E+00  0.00000000E+00
  0.00000000E+00  0.00000000E+00  0.00000000E+00
  0.00000000E+00  0.00000000E+00  0.00000000E+00
  0.00000000E+00  0.00000000E+00  0.00000000E+00
  0.00000000E+00  0.00000000E+00  0.00000000E+00
  0.00000000E+00  0.00000000E+00  0.00000000E+00
  0.00000000E+00  0.00000000E+00  0.00000000E+00
  0.00000000E+00  0.00000000E+00  0.00000000E+00
  0.00000000E+00  0.00000000E+00  0.00000000E+00
  0.00000000E+00  0.00000000E+00  0.00000000E+00
  0.00000000E+00  0.00000000E+00  0.00000000E+00
