CoH_exp5	                               
   1.00000000000000     
    24.4399766168625838    0.0008775315313129   -0.0058946318554013
     0.0010702480613653   24.6133794150512379    4.5056791365059654
    -0.0012297014695348    0.7485239376175694    6.5233100791880574
   C    Co   H    N    O 
    80     4    32    24    16
Direct
  0.8968862836392901  0.9673364171365293  0.1141290803068884
  0.9360222602958075  0.9837686807100283  0.3974610699329375
  0.8968985319013427  0.8130589094010858  0.9384429132921568
  0.6030233807862899  0.4673622308669465  0.6138024424904671
  0.5640873262457902  0.2966037459054078  0.1548799337884716
  0.0638520505084514  0.7964384667404687  0.1553364399779724
  0.5639864861820243  0.4837824788865603  0.8971874243862459
  0.6030834157922342  0.3131088376011846  0.4382842040608637
  0.4356715605030956  0.4835776981001416  0.3970653630934535
  0.1029255398336915  0.8128402328572193  0.4387817268367655
  0.0640237196080875  0.9837037043339336  0.8975716463152779
  0.4360089174012671  0.2965078834577426  0.6547294109979376
  0.9359405796826863  0.7965248562020690  0.6552922119737801
  0.1031219909889884  0.9672105572240071  0.6144199233865635
  0.3969973852864186  0.3129688711843954  0.9380795920895437
  0.3966554842440360  0.4670260339989483  0.1137781565971707
  0.8220448415825388  0.0319539696066258  0.4545007923123876
  0.8421790950197590  0.0838563653701669  0.0727501250087528
  0.8422456785044119  0.6963640035139989  0.9805844367394840
  0.6578027901601757  0.5838465410419218  0.5725180089178252
  0.6578065220578324  0.1964372397304501  0.4804334794281999
  0.1778355165091270  0.7481597581781045  0.0991715378331861
  0.6779708647785441  0.5319377618580177  0.9543165120135413
  0.6780996659019607  0.2484203162328527  0.0988494562065299
  0.3215292558831564  0.5314756625817694  0.4539651229471175
  0.1574127069726430  0.6960354163213012  0.4804856329474703
  0.1577886791351517  0.0837644105945543  0.5729601558672712
  0.3424479672285443  0.1962461556143964  0.9800656402764432
  0.8219210301343125  0.7483538322274654  0.5989513680418597
  0.1780380424851202  0.0318644480260488  0.9546556381085196
  0.3219742020155181  0.2482661136618205  0.5985889851985107
  0.3417836986461182  0.5835290314906061  0.0725099426253166
  0.7794668648561611  0.0740499404174244  0.4561167793956855
  0.8006801578073421  0.1260732874737513  0.0847597406608500
  0.8006429472694876  0.6542000879103540  0.9687816472344650
  0.6993222286347702  0.6260439253784469  0.5846021075803947
  0.6993887218624764  0.1542505116894404  0.4686907354493499
  0.2203605940049371  0.7060146759806472  0.0975917627382259
  0.7205513234895662  0.5740257741043138  0.9560295627321409
  0.7206731217162954  0.2063088567007867  0.0974308824837280
  0.2789934206781410  0.5736028527644166  0.4557414066617156
  0.1990060996443646  0.6538579927731547  0.4686830134811046
  0.1993175771342663  0.1259659664153361  0.5848349609711363
  0.3007664554457179  0.1541258851416458  0.9685503933097479
  0.7793426957875624  0.7062539702099855  0.5974451366445876
  0.2206048327664405  0.0739770173994643  0.9562354246981428
  0.2793849507562172  0.2061601093179064  0.5972657288294201
  0.3002890639198341  0.6257424873295747  0.0845904854279738
  0.7486713856601028  0.0685977919948044  0.6389736368162531
  0.7913168709242839  0.1718361089321832  0.9082845940785447
  0.7912487460175939  0.6084592787034850  0.1453179624070913
  0.7086767788756916  0.6718045631860363  0.4081427185107316
  0.7087807536765851  0.1085020813534072  0.6452344951127387
  0.2511670740821543  0.7115086445025085  0.9147444648100702
  0.7513553216237483  0.5685668618122506  0.1389684405166562
  0.7514761808548513  0.2117725075093020  0.9146079591304357
  0.2482013540283532  0.5681243380865695  0.6386338072883504
  0.2083433361100973  0.6080466556807309  0.6450565260010706
  0.2086642892279045  0.1716943928419781  0.4082518959208414
  0.2913816113852477  0.1084135983537706  0.1451973548798051
  0.7485289682073812  0.7117225340304998  0.4145546315427922
  0.2514482426324918  0.0685376758779981  0.1390623552221939
  0.2485446223170982  0.2116014702169622  0.4144545402081548
  0.2909764114883231  0.6715593139848082  0.9082637831971496
  0.8920749856360928  0.9994608917835492  0.2561729888315938
  0.8920841727017716  0.7808072982695222  0.7968649871564892
  0.6078985643664865  0.4994726957906721  0.7558846254057556
  0.6079453495591878  0.2808896837452437  0.2966089574383304
  0.1077002855355644  0.7806255489246610  0.2970557001539333
  0.3917079109356223  0.4991379475668793  0.2558043234063447
  0.1079616237117804  0.9993563750017884  0.7563852522701566
  0.3921692952705129  0.2807553311076560  0.7963529533886060
  0.7702782108011590  0.1198922843508257  0.2735881679202379
  0.7701829487207092  0.6604048090321371  0.7799691658722665
  0.7297359848922866  0.6198616756056694  0.7735117766221222
  0.7298347385689752  0.1604464893859543  0.2799514046961988
  0.2294728864614939  0.6600987907774893  0.2799643179285880
  0.2698712114085140  0.6195221306228902  0.2734115209154737
  0.2297679016464187  0.1197982586531481  0.7736361597823702
  0.2702450842955741  0.1603295119513106  0.7798825682102120
  0.9843073698925480  0.8901956220328984  0.0261499259490634
  0.0156362705860147  0.8901312423436565  0.5262830065571578
  0.5155993024636203  0.3902125217798442  0.5257643645039778
  0.4843378087163472  0.3901882883507852  0.0257356782388456
  0.3155188669118516  0.1045476340591591  0.2883461439414461
  0.7434613249428139  0.5328644706539123  0.2771573100484090
  0.7436094106046056  0.2475029981116705  0.7764621735173947
  0.7565641015836775  0.0328928162572950  0.7771860620745841
  0.7563972229052425  0.7474478682021015  0.2764365080242897
  0.6845966980376517  0.6756445990461870  0.2648789696906064
  0.1842522116174621  0.6041524822032258  0.7882589029137321
  0.1845651619452724  0.1755214366961013  0.2650541704505258
  0.8153498226800835  0.6045816515985152  0.2885519086831749
  0.2564104051936269  0.2473096571999420  0.2762752788413749
  0.2560521557143929  0.5323615148029859  0.7766866411639768
  0.2433308656740749  0.7472859855759708  0.7767388731909008
  0.3150699571434359  0.6754394131603334  0.7650869106706040
  0.6846884377381954  0.1046330919678979  0.7884098614209023
  0.8153861181707143  0.1756630629902887  0.7650894015013137
  0.2435737162026328  0.0328500298369150  0.2773349383447865
  0.5529103863389082  0.4975695108251017  0.0337696845336097
  0.4470831624287115  0.2826932120386871  0.5182038448859885
  0.3721758333617018  0.4670903703587186  0.9755485362600069
  0.1273967401532730  0.8126907848148832  0.5771209783230447
  0.0529116784923218  0.9975437947822456  0.0339885352770466
  0.3725572823535046  0.3128330464947027  0.0763965859742086
  0.8724000294842185  0.9674839255471710  0.9758347925520141
  0.9470277938073934  0.7826647778320961  0.5188795712938941
  0.1275992788980176  0.9673393052132084  0.4761983605260554
  0.6274880860334875  0.4675070505904912  0.4755385609412599
  0.5530373141414771  0.2827627010493643  0.0183658312991284
  0.9471433284100712  0.9975865584678516  0.5339568597391704
  0.6275259509520126  0.3130153715589401  0.5766215112864188
  0.4467346825463423  0.4974399120441646  0.5335129545878843
  0.0527370591501537  0.7826244676778487  0.0188104584296198
  0.8724361666190319  0.8129693703556455  0.0766508073753229
  0.9410991676239604  0.9340259065168510  0.1702009803164870
  0.9653327541618353  0.9443864471664654  0.3430531419123781
  0.9410269589346001  0.8464558647552067  0.8819066261945991
  0.5588097642863517  0.4340672602762581  0.6698389185214069
  0.5347910266831448  0.3360804444160337  0.2087194763847720
  0.0346308384441514  0.8359501457224781  0.2092709131191981
  0.5346367491828445  0.4444287082732075  0.8427252582865137
  0.5589325091654302  0.3464869893036209  0.3816441824634680
  0.4651221409134649  0.4442867117670417  0.3426739526282248
  0.0588263488191458  0.8462990346204080  0.3822043725690989
  0.0346972257057558  0.9443235915630979  0.8431911707679731
  0.4652692429638279  0.3359938158210696  0.7086972758443935
  0.9651954548748876  0.8360315279484141  0.7091416936493360
  0.0589017861971826  0.9339260376409086  0.6704317766380612
  0.4411205046263262  0.3463703846081501  0.8815842370814906
  0.4409595540904832  0.4338447988434382  0.1698512552629694
  0.8509829587740256  0.0393916229732199  0.2607656182724440
  0.8509879960761353  0.7408536367046921  0.7925386036799296
  0.6490062908820988  0.5393847409050494  0.7605222775752765
  0.6490577857572362  0.2409387306455741  0.2923834605389217
  0.1487677700593864  0.7406382751978597  0.2926670767396047
  0.3505431909216838  0.5390041031864143  0.2603588585289316
  0.1490452286554387  0.0392964499808315  0.7609597115098197
  0.3510825693936965  0.2407843660795024  0.7920747146985647
  0.8320594244134725  0.9923464766620214  0.6113837338597747
  0.8678149180171175  0.0866707082940650  0.9090012856345240
  0.8679927117959494  0.6934931471256789  0.1442141424773595
  0.6321490685226152  0.5866623712832464  0.4087265039506889
  0.6320778092241142  0.1935765716478315  0.6440069134012845
  0.1679630276440349  0.7878469225940989  0.9423744359368911
  0.6679674100517801  0.4923400251855128  0.1112013179428359
  0.6681683960830895  0.2880422982414359  0.9419012024326463
  0.3314823435379850  0.4918076819505401  0.6107147570500260
  0.1315637482011667  0.6930693902461087  0.6438783978026166
  0.1320908487016084  0.0865833808206986  0.4092671861936950
  0.3683580831578368  0.1933009844883600  0.1433864230387130
  0.8318338898299800  0.7879814740954174  0.4420469006606140
  0.1680864731058165  0.9922474168148128  0.1115392745847714
  0.3318643831133130  0.2878839250376970  0.4416159826822579
  0.3674515239613498  0.5863873507000221  0.9088032216541322
 
  0.00000000E+00  0.00000000E+00  0.00000000E+00
  0.00000000E+00  0.00000000E+00  0.00000000E+00
  0.00000000E+00  0.00000000E+00  0.00000000E+00
  0.00000000E+00  0.00000000E+00  0.00000000E+00
  0.00000000E+00  0.00000000E+00  0.00000000E+00
  0.00000000E+00  0.00000000E+00  0.00000000E+00
  0.00000000E+00  0.00000000E+00  0.00000000E+00
  0.00000000E+00  0.00000000E+00  0.00000000E+00
  0.00000000E+00  0.00000000E+00  0.00000000E+00
  0.00000000E+00  0.00000000E+00  0.00000000E+00
  0.00000000E+00  0.00000000E+00  0.00000000E+00
  0.00000000E+00  0.00000000E+00  0.00000000E+00
  0.00000000E+00  0.00000000E+00  0.00000000E+00
  0.00000000E+00  0.00000000E+00  0.00000000E+00
  0.00000000E+00  0.00000000E+00  0.00000000E+00
  0.00000000E+00  0.00000000E+00  0.00000000E+00
  0.00000000E+00  0.00000000E+00  0.00000000E+00
  0.00000000E+00  0.00000000E+00  0.00000000E+00
  0.00000000E+00  0.00000000E+00  0.00000000E+00
  0.00000000E+00  0.00000000E+00  0.00000000E+00
  0.00000000E+00  0.00000000E+00  0.00000000E+00
  0.00000000E+00  0.00000000E+00  0.00000000E+00
  0.00000000E+00  0.00000000E+00  0.00000000E+00
  0.00000000E+00  0.00000000E+00  0.00000000E+00
  0.00000000E+00  0.00000000E+00  0.00000000E+00
  0.00000000E+00  0.00000000E+00  0.00000000E+00
  0.00000000E+00  0.00000000E+00  0.00000000E+00
  0.00000000E+00  0.00000000E+00  0.00000000E+00
  0.00000000E+00  0.00000000E+00  0.00000000E+00
  0.00000000E+00  0.00000000E+00  0.00000000E+00
  0.00000000E+00  0.00000000E+00  0.00000000E+00
  0.00000000E+00  0.00000000E+00  0.00000000E+00
  0.00000000E+00  0.00000000E+00  0.00000000E+00
  0.00000000E+00  0.00000000E+00  0.00000000E+00
  0.00000000E+00  0.00000000E+00  0.00000000E+00
  0.00000000E+00  0.00000000E+00  0.00000000E+00
  0.00000000E+00  0.00000000E+00  0.00000000E+00
  0.00000000E+00  0.00000000E+00  0.00000000E+00
  0.00000000E+00  0.00000000E+00  0.00000000E+00
  0.00000000E+00  0.00000000E+00  0.00000000E+00
  0.00000000E+00  0.00000000E+00  0.00000000E+00
  0.00000000E+00  0.00000000E+00  0.00000000E+00
  0.00000000E+00  0.00000000E+00  0.00000000E+00
  0.00000000E+00  0.00000000E+00  0.00000000E+00
  0.00000000E+00  0.00000000E+00  0.00000000E+00
  0.00000000E+00  0.00000000E+00  0.00000000E+00
  0.00000000E+00  0.00000000E+00  0.00000000E+00
  0.00000000E+00  0.00000000E+00  0.00000000E+00
  0.00000000E+00  0.00000000E+00  0.00000000E+00
  0.00000000E+00  0.00000000E+00  0.00000000E+00
  0.00000000E+00  0.00000000E+00  0.00000000E+00
  0.00000000E+00  0.00000000E+00  0.00000000E+00
  0.00000000E+00  0.00000000E+00  0.00000000E+00
  0.00000000E+00  0.00000000E+00  0.00000000E+00
  0.00000000E+00  0.00000000E+00  0.00000000E+00
  0.00000000E+00  0.00000000E+00  0.00000000E+00
  0.00000000E+00  0.00000000E+00  0.00000000E+00
  0.00000000E+00  0.00000000E+00  0.00000000E+00
  0.00000000E+00  0.00000000E+00  0.00000000E+00
  0.00000000E+00  0.00000000E+00  0.00000000E+00
  0.00000000E+00  0.00000000E+00  0.00000000E+00
  0.00000000E+00  0.00000000E+00  0.00000000E+00
  0.00000000E+00  0.00000000E+00  0.00000000E+00
  0.00000000E+00  0.00000000E+00  0.00000000E+00
  0.00000000E+00  0.00000000E+00  0.00000000E+00
  0.00000000E+00  0.00000000E+00  0.00000000E+00
  0.00000000E+00  0.00000000E+00  0.00000000E+00
  0.00000000E+00  0.00000000E+00  0.00000000E+00
  0.00000000E+00  0.00000000E+00  0.00000000E+00
  0.00000000E+00  0.00000000E+00  0.00000000E+00
  0.00000000E+00  0.00000000E+00  0.00000000E+00
  0.00000000E+00  0.00000000E+00  0.00000000E+00
  0.00000000E+00  0.00000000E+00  0.00000000E+00
  0.00000000E+00  0.00000000E+00  0.00000000E+00
  0.00000000E+00  0.00000000E+00  0.00000000E+00
  0.00000000E+00  0.00000000E+00  0.00000000E+00
  0.00000000E+00  0.00000000E+00  0.00000000E+00
  0.00000000E+00  0.00000000E+00  0.00000000E+00
  0.00000000E+00  0.00000000E+00  0.00000000E+00
  0.00000000E+00  0.00000000E+00  0.00000000E+00
  0.00000000E+00  0.00000000E+00  0.00000000E+00
  0.00000000E+00  0.00000000E+00  0.00000000E+00
  0.00000000E+00  0.00000000E+00  0.00000000E+00
  0.00000000E+00  0.00000000E+00  0.00000000E+00
  0.00000000E+00  0.00000000E+00  0.00000000E+00
  0.00000000E+00  0.00000000E+00  0.00000000E+00
  0.00000000E+00  0.00000000E+00  0.00000000E+00
  0.00000000E+00  0.00000000E+00  0.00000000E+00
  0.00000000E+00  0.00000000E+00  0.00000000E+00
  0.00000000E+00  0.00000000E+00  0.00000000E+00
  0.00000000E+00  0.00000000E+00  0.00000000E+00
  0.00000000E+00  0.00000000E+00  0.00000000E+00
  0.00000000E+00  0.00000000E+00  0.00000000E+00
  0.00000000E+00  0.00000000E+00  0.00000000E+00
  0.00000000E+00  0.00000000E+00  0.00000000E+00
  0.00000000E+00  0.00000000E+00  0.00000000E+00
  0.00000000E+00  0.00000000E+00  0.00000000E+00
  0.00000000E+00  0.00000000E+00  0.00000000E+00
  0.00000000E+00  0.00000000E+00  0.00000000E+00
  0.00000000E+00  0.00000000E+00  0.00000000E+00
  0.00000000E+00  0.00000000E+00  0.00000000E+00
  0.00000000E+00  0.00000000E+00  0.00000000E+00
  0.00000000E+00  0.00000000E+00  0.00000000E+00
  0.00000000E+00  0.00000000E+00  0.00000000E+00
  0.00000000E+00  0.00000000E+00  0.00000000E+00
  0.00000000E+00  0.00000000E+00  0.00000000E+00
  0.00000000E+00  0.00000000E+00  0.00000000E+00
  0.00000000E+00  0.00000000E+00  0.00000000E+00
  0.00000000E+00  0.00000000E+00  0.00000000E+00
  0.00000000E+00  0.00000000E+00  0.00000000E+00
  0.00000000E+00  0.00000000E+00  0.00000000E+00
  0.00000000E+00  0.00000000E+00  0.00000000E+00
  0.00000000E+00  0.00000000E+00  0.00000000E+00
  0.00000000E+00  0.00000000E+00  0.00000000E+00
  0.00000000E+00  0.00000000E+00  0.00000000E+00
  0.00000000E+00  0.00000000E+00  0.00000000E+00
  0.00000000E+00  0.00000000E+00  0.00000000E+00
  0.00000000E+00  0.00000000E+00  0.00000000E+00
  0.00000000E+00  0.00000000E+00  0.00000000E+00
  0.00000000E+00  0.00000000E+00  0.00000000E+00
  0.00000000E+00  0.00000000E+00  0.00000000E+00
  0.00000000E+00  0.00000000E+00  0.00000000E+00
  0.00000000E+00  0.00000000E+00  0.00000000E+00
  0.00000000E+00  0.00000000E+00  0.00000000E+00
  0.00000000E+00  0.00000000E+00  0.00000000E+00
  0.00000000E+00  0.00000000E+00  0.00000000E+00
  0.00000000E+00  0.00000000E+00  0.00000000E+00
  0.00000000E+00  0.00000000E+00  0.00000000E+00
  0.00000000E+00  0.00000000E+00  0.00000000E+00
  0.00000000E+00  0.00000000E+00  0.00000000E+00
  0.00000000E+00  0.00000000E+00  0.00000000E+00
  0.00000000E+00  0.00000000E+00  0.00000000E+00
  0.00000000E+00  0.00000000E+00  0.00000000E+00
  0.00000000E+00  0.00000000E+00  0.00000000E+00
  0.00000000E+00  0.00000000E+00  0.00000000E+00
  0.00000000E+00  0.00000000E+00  0.00000000E+00
  0.00000000E+00  0.00000000E+00  0.00000000E+00
  0.00000000E+00  0.00000000E+00  0.00000000E+00
  0.00000000E+00  0.00000000E+00  0.00000000E+00
  0.00000000E+00  0.00000000E+00  0.00000000E+00
  0.00000000E+00  0.00000000E+00  0.00000000E+00
  0.00000000E+00  0.00000000E+00  0.00000000E+00
  0.00000000E+00  0.00000000E+00  0.00000000E+00
  0.00000000E+00  0.00000000E+00  0.00000000E+00
  0.00000000E+00  0.00000000E+00  0.00000000E+00
  0.00000000E+00  0.00000000E+00  0.00000000E+00
  0.00000000E+00  0.00000000E+00  0.00000000E+00
  0.00000000E+00  0.00000000E+00  0.00000000E+00
  0.00000000E+00  0.00000000E+00  0.00000000E+00
  0.00000000E+00  0.00000000E+00  0.00000000E+00
  0.00000000E+00  0.00000000E+00  0.00000000E+00
  0.00000000E+00  0.00000000E+00  0.00000000E+00
  0.00000000E+00  0.00000000E+00  0.00000000E+00
  0.00000000E+00  0.00000000E+00  0.00000000E+00
  0.00000000E+00  0.00000000E+00  0.00000000E+00
  0.00000000E+00  0.00000000E+00  0.00000000E+00
