Co_C                                    
   1.00000000000000     
    10.4188289093390001   -0.0029297644661663   -0.0069599511670342
    -0.0049569639739633   32.6006370474143878   -2.4213796800620382
    -0.0039475849349940   -0.5151140846908373    6.5474832590665528
   C    Co   H    N    O 
    80     4    32    24    16
Direct
  0.9023841073038312  0.9578200342464527  0.1409346605496751
  0.7995277180778899  0.9510368946520558  0.4315662387647521
  0.9030672997499423  0.7980356484154782  0.9078697108134861
  0.5976886560342507  0.4575432779532917  0.6371213040012691
  0.6986472607535035  0.3045791994358211  0.1138799801078534
  0.1888061815589950  0.8045819953157647  0.1169976103083599
  0.6998521653264760  0.4508662297677262  0.9289098317652389
  0.5956680318304564  0.2978886271573273  0.4045380946016337
  0.3117718688744944  0.4516775769611243  0.4288261896954424
  0.0867280923722049  0.7979989476977138  0.4085340812202531
  0.1882689023637596  0.9516161655976632  0.9321729885758359
  0.3102113404494204  0.3042912936544155  0.6131117275784703
  0.8006181100227607  0.8045852322862785  0.6161895430861222
  0.0858985191070900  0.9579660292022112  0.6402019845721583
  0.4124831024122457  0.2978633559274826  0.9050686225125801
  0.4136418647230826  0.4579066802525347  0.1366700737300945
  0.7164493028259074  0.0317034481406751  0.1334686815270487
  0.8440652261926900  0.0497916630567374  0.4593003750768716
  0.8456601812411080  0.7060058245335270  0.5877504902348036
  0.6560164703851612  0.5494377094178162  0.9570358318725312
  0.6536785938014518  0.2058559338169488  0.0861940410694615
  0.2741811347888330  0.7243838320362954  0.4161551721556975
  0.7832037140405887  0.5316527918490621  0.6311547124891490
  0.7812683212707512  0.2239313773463110  0.4121178443979687
  0.2276326270982594  0.5318053316991609  0.1282667898020335
  0.1474800528878504  0.7057354168949814  0.0898055360949002
  0.1462074524321935  0.0504945507874552  0.9567481217322680
  0.3520334628123152  0.2053829224668533  0.5880023264650376
  0.7184188478955775  0.7237425197417622  0.9136388433657103
  0.2733664871450898  0.0315775010160806  0.6316646988558858
  0.2252890220800055  0.2242702094538203  0.9136063626258775
  0.3544419993057488  0.5504796722453307  0.4544557840022208
  0.7000554450317011  0.0765312863418046  0.1258829983096348
  0.8253731724603952  0.0942547410665000  0.4456143432058397
  0.8271226091200532  0.6614932510150098  0.6004245154021817
  0.6746690238836734  0.5939374070934065  0.9443172997084730
  0.6724537040851644  0.1613963003827408  0.0997642574664255
  0.2952567240178823  0.6796476621213898  0.4211680646231102
  0.7996471909584955  0.5765274009157508  0.6246060993151588
  0.7978399928915607  0.1791051987737191  0.4194927946257252
  0.2069562585070273  0.5765572378572870  0.1227496392270311
  0.1705301934518104  0.6613464713257144  0.1012504196935353
  0.1689452911494982  0.0948483383229259  0.9439706766088349
  0.3294452692674597  0.1610222685777956  0.6008705993531791
  0.7020579211953262  0.6788729469350443  0.9200809324982870
  0.2938516743424771  0.0763004641921228  0.6249993920551162
  0.2047340256549717  0.1795542418837783  0.9200683347082972
  0.3317199551601888  0.5948704240768450  0.4425722626077615
  0.6322085616924937  0.0891900025793788  0.9639594560744200
  0.8795511336664603  0.1241729302277079  0.5942506807668693
  0.8811744589543480  0.6317033710762274  0.4513590050031553
  0.6206357683460695  0.6237174935284386  0.0934211278903732
  0.6183633874456618  0.1314727920429490  0.9510783690277407
  0.3652342091448375  0.6673032353000892  0.5817708380602298
  0.8673976446936180  0.5893736518837258  0.4632740870644909
  0.8657611920802921  0.1664517532349592  0.5813597372869737
  0.1371903638307828  0.5889015386648353  0.9619171927692278
  0.1189533695779232  0.6311218068588431  0.9513660356012110
  0.1170098925686958  0.1251561064595563  0.0927218842914712
  0.3813067553121101  0.1307060112473692  0.4520534502767504
  0.6343582533341277  0.6660398362441526  0.0814730304348927
  0.3635052694833973  0.0885172496956415  0.4639498785420528
  0.1349865055194996  0.1673390426741364  0.0810049557139649
  0.3835145225674239  0.6250860421067728  0.5922581924098012
  0.8226837745048314  0.9787264612635482  0.2929752065580615
  0.8239037675548602  0.7769613340926682  0.7550932850893446
  0.6772274003951892  0.4784883182240165  0.7897441034497916
  0.6752392384691532  0.2769135691281122  0.2524857106298768
  0.1659972909177370  0.7769658715640233  0.2561688333859280
  0.3349606785852117  0.4791738478223451  0.2891773468762509
  0.1652139569622832  0.9791312289535270  0.7925239464404683
  0.3331967897116712  0.2767357475891146  0.7526006966876082
  0.7557493163211788  0.1063741753435679  0.2794169892971894
  0.7576563411968849  0.6491800835889023  0.7660837955488873
  0.7440977805946147  0.6062345895051067  0.7786019863454712
  0.7421303620842963  0.1492753701918588  0.2659286072337963
  0.2420797330978175  0.6495358418603630  0.2663214643291951
  0.2601702342601797  0.6066834333980822  0.2775020430395685
  0.2404197658425673  0.1065243856463312  0.7787363162833358
  0.2581201807677402  0.1493422977205583  0.7662513288741408
  0.0353223670799849  0.8780325322533074  0.0246839161318775
  0.9538178490339533  0.8779083083292250  0.5241354917315419
  0.4636146302372168  0.3778372457863739  0.5210246802628049
  0.5451820733675774  0.3778080503987127  0.0209923729886796
  0.4356550505208716  0.1404608140076604  0.3260793601061849
  0.9084649228177497  0.5658122813606141  0.3461424912166038
  0.9068819904964585  0.1901279002336622  0.6981008071582693
  0.5910955825192730  0.0655173657085442  0.8471840371098409
  0.5933064214074619  0.6896058174836313  0.1985842919411809
  0.5678339725658930  0.6134207963556975  0.2195325527580110
  0.0644505825826727  0.6409718246853870  0.8256185973986589
  0.0625126206949815  0.1153904162425050  0.2185075606132401
  0.9340213528333905  0.6419880472112496  0.3252524317373613
  0.0956030253430242  0.1912824892701224  0.1979550439939146
  0.0979562552307200  0.5650400781707177  0.8441614924877641
  0.4044855875106208  0.6911689881509488  0.6995067893727622
  0.4380821969557260  0.6152218682178017  0.7179011465610330
  0.5653861414994807  0.1416069881884212  0.8245370096026932
  0.9325075449584972  0.1140270172338091  0.7207767880057219
  0.4029024533377878  0.0645746820532906  0.3470095464555314
  0.7534513553771305  0.4550755528462744  0.0725178033305127
  0.2565061559309285  0.2999762325477278  0.4695967916541193
  0.4532063509939945  0.4684686205994169  0.0013317103741457
  0.0472314877503592  0.7872867153953464  0.5435410209156615
  0.2419724038210092  0.9559783292136572  0.0756966829198618
  0.4521088204012500  0.2872050268643349  0.0402662900888160
  0.9422482644981898  0.9686901230291127  0.0065545538901404
  0.7470593030037236  0.8003136791151988  0.4725551162984303
  0.0462014333649918  0.9685969142169526  0.5049888258897681
  0.5581438078333960  0.4683512475741196  0.5022367860962405
  0.7525093245522712  0.3003660508983117  0.9707680595466925
  0.7455920338106523  0.9552049859726210  0.5746141020202913
  0.5557085516845390  0.2870620069831133  0.5389674539697324
  0.2584308101012240  0.4561143175923519  0.5724678589984080
  0.2424011170863380  0.8003328519385846  0.9736096401076111
  0.9428322616213265  0.7872798035757640  0.0427263025725964
  0.9267996217569845  0.9198791146390377  0.1868502993388717
  0.8632881180927683  0.9153878131009492  0.3651859714838963
  0.9270929705051145  0.8360093043968249  0.8620114456532306
  0.5728594301440069  0.4196417159630457  0.6832675394104513
  0.6351796885535279  0.3402810173119590  0.1802483628412261
  0.1252543693953783  0.8402744531098421  0.1832529043900450
  0.6359795816285825  0.4152161185071606  0.8622684413962176
  0.5715740648301093  0.3358462789730012  0.3585645831374578
  0.3745686703990572  0.4158305993568518  0.3626717502787287
  0.0621914146824665  0.8359073978739247  0.3621889328461307
  0.1248343610629661  0.9158495806032576  0.8661373778474299
  0.3737164144399330  0.3400383833003886  0.6792982989523750
  0.8637955749390542  0.8403557811248561  0.6830546834026450
  0.0616311441538571  0.9200720910430960  0.6869007966794101
  0.4368618895026657  0.3357635936631951  0.8585191522695652
  0.4374986732431410  0.4199823779990695  0.1833269763893810
  0.7872484326090259  0.0210693768957313  0.3022612072521724
  0.7889390090285957  0.7345697240976463  0.7452743086160396
  0.7126564532010775  0.5208480671785480  0.7995677734393709
  0.7105099374268988  0.2345661031966273  0.2433020788421345
  0.2027374817101872  0.7347323976955664  0.2473076152556004
  0.2988828639371306  0.5214601348367580  0.2973458145242276
  0.2018081620471008  0.0213776583202403  0.8004968876914162
  0.2965627186957747  0.2344898968016622  0.7445046759514398
  0.6728825322241434  0.0049057513919308  0.0001116541728123
  0.9070051273896524  0.0381990103700360  0.5984249982475518
  0.9083642197287318  0.7177735335115045  0.4490537217706390
  0.5932452094369225  0.5377060303995620  0.0957639675960209
  0.5906796349157304  0.2174699444286503  0.9471958743837874
  0.3147801096392229  0.7513266516227475  0.5515378337571377
  0.8265219150935295  0.5049656192521397  0.4972830941119426
  0.8246912837521663  0.2507190287440935  0.5456753680369033
  0.1867393191484297  0.5048508701683829  0.9931913087132358
  0.0826183242355327  0.7169878528350964  0.9518796650499226
  0.0813394192771142  0.0393607814732064  0.0947629103063434
  0.4167132285914974  0.2165320643003668  0.4498195309297515
  0.6749598164202624  0.7504027959765409  0.0475341769268951
  0.3145301882704317  0.0045211511451484  0.4976016261677643
  0.1844160517018238  0.2513013284124312  0.0480552783935906
  0.4191810453269866  0.5392511474610444  0.5925739028929229
 
  0.00000000E+00  0.00000000E+00  0.00000000E+00
  0.00000000E+00  0.00000000E+00  0.00000000E+00
  0.00000000E+00  0.00000000E+00  0.00000000E+00
  0.00000000E+00  0.00000000E+00  0.00000000E+00
  0.00000000E+00  0.00000000E+00  0.00000000E+00
  0.00000000E+00  0.00000000E+00  0.00000000E+00
  0.00000000E+00  0.00000000E+00  0.00000000E+00
  0.00000000E+00  0.00000000E+00  0.00000000E+00
  0.00000000E+00  0.00000000E+00  0.00000000E+00
  0.00000000E+00  0.00000000E+00  0.00000000E+00
  0.00000000E+00  0.00000000E+00  0.00000000E+00
  0.00000000E+00  0.00000000E+00  0.00000000E+00
  0.00000000E+00  0.00000000E+00  0.00000000E+00
  0.00000000E+00  0.00000000E+00  0.00000000E+00
  0.00000000E+00  0.00000000E+00  0.00000000E+00
  0.00000000E+00  0.00000000E+00  0.00000000E+00
  0.00000000E+00  0.00000000E+00  0.00000000E+00
  0.00000000E+00  0.00000000E+00  0.00000000E+00
  0.00000000E+00  0.00000000E+00  0.00000000E+00
  0.00000000E+00  0.00000000E+00  0.00000000E+00
  0.00000000E+00  0.00000000E+00  0.00000000E+00
  0.00000000E+00  0.00000000E+00  0.00000000E+00
  0.00000000E+00  0.00000000E+00  0.00000000E+00
  0.00000000E+00  0.00000000E+00  0.00000000E+00
  0.00000000E+00  0.00000000E+00  0.00000000E+00
  0.00000000E+00  0.00000000E+00  0.00000000E+00
  0.00000000E+00  0.00000000E+00  0.00000000E+00
  0.00000000E+00  0.00000000E+00  0.00000000E+00
  0.00000000E+00  0.00000000E+00  0.00000000E+00
  0.00000000E+00  0.00000000E+00  0.00000000E+00
  0.00000000E+00  0.00000000E+00  0.00000000E+00
  0.00000000E+00  0.00000000E+00  0.00000000E+00
  0.00000000E+00  0.00000000E+00  0.00000000E+00
  0.00000000E+00  0.00000000E+00  0.00000000E+00
  0.00000000E+00  0.00000000E+00  0.00000000E+00
  0.00000000E+00  0.00000000E+00  0.00000000E+00
  0.00000000E+00  0.00000000E+00  0.00000000E+00
  0.00000000E+00  0.00000000E+00  0.00000000E+00
  0.00000000E+00  0.00000000E+00  0.00000000E+00
  0.00000000E+00  0.00000000E+00  0.00000000E+00
  0.00000000E+00  0.00000000E+00  0.00000000E+00
  0.00000000E+00  0.00000000E+00  0.00000000E+00
  0.00000000E+00  0.00000000E+00  0.00000000E+00
  0.00000000E+00  0.00000000E+00  0.00000000E+00
  0.00000000E+00  0.00000000E+00  0.00000000E+00
  0.00000000E+00  0.00000000E+00  0.00000000E+00
  0.00000000E+00  0.00000000E+00  0.00000000E+00
  0.00000000E+00  0.00000000E+00  0.00000000E+00
  0.00000000E+00  0.00000000E+00  0.00000000E+00
  0.00000000E+00  0.00000000E+00  0.00000000E+00
  0.00000000E+00  0.00000000E+00  0.00000000E+00
  0.00000000E+00  0.00000000E+00  0.00000000E+00
  0.00000000E+00  0.00000000E+00  0.00000000E+00
  0.00000000E+00  0.00000000E+00  0.00000000E+00
  0.00000000E+00  0.00000000E+00  0.00000000E+00
  0.00000000E+00  0.00000000E+00  0.00000000E+00
  0.00000000E+00  0.00000000E+00  0.00000000E+00
  0.00000000E+00  0.00000000E+00  0.00000000E+00
  0.00000000E+00  0.00000000E+00  0.00000000E+00
  0.00000000E+00  0.00000000E+00  0.00000000E+00
  0.00000000E+00  0.00000000E+00  0.00000000E+00
  0.00000000E+00  0.00000000E+00  0.00000000E+00
  0.00000000E+00  0.00000000E+00  0.00000000E+00
  0.00000000E+00  0.00000000E+00  0.00000000E+00
  0.00000000E+00  0.00000000E+00  0.00000000E+00
  0.00000000E+00  0.00000000E+00  0.00000000E+00
  0.00000000E+00  0.00000000E+00  0.00000000E+00
  0.00000000E+00  0.00000000E+00  0.00000000E+00
  0.00000000E+00  0.00000000E+00  0.00000000E+00
  0.00000000E+00  0.00000000E+00  0.00000000E+00
  0.00000000E+00  0.00000000E+00  0.00000000E+00
  0.00000000E+00  0.00000000E+00  0.00000000E+00
  0.00000000E+00  0.00000000E+00  0.00000000E+00
  0.00000000E+00  0.00000000E+00  0.00000000E+00
  0.00000000E+00  0.00000000E+00  0.00000000E+00
  0.00000000E+00  0.00000000E+00  0.00000000E+00
  0.00000000E+00  0.00000000E+00  0.00000000E+00
  0.00000000E+00  0.00000000E+00  0.00000000E+00
  0.00000000E+00  0.00000000E+00  0.00000000E+00
  0.00000000E+00  0.00000000E+00  0.00000000E+00
  0.00000000E+00  0.00000000E+00  0.00000000E+00
  0.00000000E+00  0.00000000E+00  0.00000000E+00
  0.00000000E+00  0.00000000E+00  0.00000000E+00
  0.00000000E+00  0.00000000E+00  0.00000000E+00
  0.00000000E+00  0.00000000E+00  0.00000000E+00
  0.00000000E+00  0.00000000E+00  0.00000000E+00
  0.00000000E+00  0.00000000E+00  0.00000000E+00
  0.00000000E+00  0.00000000E+00  0.00000000E+00
  0.00000000E+00  0.00000000E+00  0.00000000E+00
  0.00000000E+00  0.00000000E+00  0.00000000E+00
  0.00000000E+00  0.00000000E+00  0.00000000E+00
  0.00000000E+00  0.00000000E+00  0.00000000E+00
  0.00000000E+00  0.00000000E+00  0.00000000E+00
  0.00000000E+00  0.00000000E+00  0.00000000E+00
  0.00000000E+00  0.00000000E+00  0.00000000E+00
  0.00000000E+00  0.00000000E+00  0.00000000E+00
  0.00000000E+00  0.00000000E+00  0.00000000E+00
  0.00000000E+00  0.00000000E+00  0.00000000E+00
  0.00000000E+00  0.00000000E+00  0.00000000E+00
  0.00000000E+00  0.00000000E+00  0.00000000E+00
  0.00000000E+00  0.00000000E+00  0.00000000E+00
  0.00000000E+00  0.00000000E+00  0.00000000E+00
  0.00000000E+00  0.00000000E+00  0.00000000E+00
  0.00000000E+00  0.00000000E+00  0.00000000E+00
  0.00000000E+00  0.00000000E+00  0.00000000E+00
  0.00000000E+00  0.00000000E+00  0.00000000E+00
  0.00000000E+00  0.00000000E+00  0.00000000E+00
  0.00000000E+00  0.00000000E+00  0.00000000E+00
  0.00000000E+00  0.00000000E+00  0.00000000E+00
  0.00000000E+00  0.00000000E+00  0.00000000E+00
  0.00000000E+00  0.00000000E+00  0.00000000E+00
  0.00000000E+00  0.00000000E+00  0.00000000E+00
  0.00000000E+00  0.00000000E+00  0.00000000E+00
  0.00000000E+00  0.00000000E+00  0.00000000E+00
  0.00000000E+00  0.00000000E+00  0.00000000E+00
  0.00000000E+00  0.00000000E+00  0.00000000E+00
  0.00000000E+00  0.00000000E+00  0.00000000E+00
  0.00000000E+00  0.00000000E+00  0.00000000E+00
  0.00000000E+00  0.00000000E+00  0.00000000E+00
  0.00000000E+00  0.00000000E+00  0.00000000E+00
  0.00000000E+00  0.00000000E+00  0.00000000E+00
  0.00000000E+00  0.00000000E+00  0.00000000E+00
  0.00000000E+00  0.00000000E+00  0.00000000E+00
  0.00000000E+00  0.00000000E+00  0.00000000E+00
  0.00000000E+00  0.00000000E+00  0.00000000E+00
  0.00000000E+00  0.00000000E+00  0.00000000E+00
  0.00000000E+00  0.00000000E+00  0.00000000E+00
  0.00000000E+00  0.00000000E+00  0.00000000E+00
  0.00000000E+00  0.00000000E+00  0.00000000E+00
  0.00000000E+00  0.00000000E+00  0.00000000E+00
  0.00000000E+00  0.00000000E+00  0.00000000E+00
  0.00000000E+00  0.00000000E+00  0.00000000E+00
  0.00000000E+00  0.00000000E+00  0.00000000E+00
  0.00000000E+00  0.00000000E+00  0.00000000E+00
  0.00000000E+00  0.00000000E+00  0.00000000E+00
  0.00000000E+00  0.00000000E+00  0.00000000E+00
  0.00000000E+00  0.00000000E+00  0.00000000E+00
  0.00000000E+00  0.00000000E+00  0.00000000E+00
  0.00000000E+00  0.00000000E+00  0.00000000E+00
  0.00000000E+00  0.00000000E+00  0.00000000E+00
  0.00000000E+00  0.00000000E+00  0.00000000E+00
  0.00000000E+00  0.00000000E+00  0.00000000E+00
  0.00000000E+00  0.00000000E+00  0.00000000E+00
  0.00000000E+00  0.00000000E+00  0.00000000E+00
  0.00000000E+00  0.00000000E+00  0.00000000E+00
  0.00000000E+00  0.00000000E+00  0.00000000E+00
  0.00000000E+00  0.00000000E+00  0.00000000E+00
  0.00000000E+00  0.00000000E+00  0.00000000E+00
  0.00000000E+00  0.00000000E+00  0.00000000E+00
  0.00000000E+00  0.00000000E+00  0.00000000E+00
  0.00000000E+00  0.00000000E+00  0.00000000E+00
  0.00000000E+00  0.00000000E+00  0.00000000E+00
  0.00000000E+00  0.00000000E+00  0.00000000E+00
  0.00000000E+00  0.00000000E+00  0.00000000E+00
  0.00000000E+00  0.00000000E+00  0.00000000E+00
  0.00000000E+00  0.00000000E+00  0.00000000E+00
