Zn_H                                    
   1.00000000000000     
    23.1745791264821186   -0.0006317071295496    0.0023832252118048
     0.0020432169699146   25.6370745439284704   -5.6056372463387252
     0.0017505895731003   -0.9564091057352264    6.4962618337070692
   C    Zn   H    N    O 
    80     4    32    24    16
Direct
  0.9377285641967816  0.9697045196539449  0.1613921599418262
  0.8893301220910814  0.9540174193022963  0.4267490729403747
  0.9374733422517636  0.7859520775949065  0.8826671843515044
  0.5620522836967865  0.4698666550105202  0.6624979305920391
  0.6106222810463393  0.3017571325893513  0.1181987141492016
  0.1105664093116872  0.8015807433317761  0.1175450874520081
  0.6104984393798674  0.4541614209599345  0.9276036451841989
  0.5622539058275393  0.2859831114293101  0.3834236796115178
  0.3892492548801485  0.4539857909744427  0.4277878645120126
  0.0620776421579734  0.7858008576334967  0.3824889960943665
  0.1105993421604126  0.9539225530267288  0.9265972367705118
  0.3892989637999378  0.3017623128968978  0.6185363494222429
  0.8891131762273758  0.8018424654600622  0.6178114924284515
  0.0622725353824052  0.9696573915761775  0.6613213900402144
  0.4376359232160283  0.2860213369349864  0.8837945088312864
  0.4376145589182698  0.4697813459882383  0.1625931492394344
  0.8177286055490782  0.0166325686571653  0.0914032057541263
  0.8405564180053489  0.0714182193322870  0.4818899522452256
  0.8401222422460108  0.6845089267034794  0.5623509921724121
  0.6591004198045454  0.5716523754119933  0.9825009544481986
  0.6595457843900761  0.1844135317091755  0.0625798883134649
  0.1821635241815684  0.7390530721295860  0.4529837907651881
  0.6820451932838409  0.5167548230209036  0.5921173165722280
  0.6823493067801962  0.2391650286106213  0.4531410996641867
  0.3175547484697674  0.5165097632664057  0.0924721051737052
  0.1594282971439043  0.6842001971598535  0.0624657627273706
  0.1594003952459815  0.0713387319151693  0.9820924796742219
  0.3404033824132640  0.1844561044218267  0.5629045504379206
  0.8173196365004003  0.7393082498384942  0.9529585081902709
  0.1822698737814221  0.0166186980307117  0.5914903655639066
  0.3175586855429913  0.2391474775515050  0.9535819412969104
  0.3402696509345446  0.5713423153615267  0.4830448606922246
  0.7763809589486286  0.0595828082021939  0.0893599491000288
  0.8006378936784060  0.1143354774181162  0.4692185421407373
  0.8001733181685751  0.6416266993931572  0.5751312919871125
  0.6990615537759197  0.6145249258919137  0.9696709811829649
  0.6995320850680358  0.1415258075388053  0.0750953638964091
  0.2235433445845842  0.6961494751365791  0.4552142117455702
  0.7233760660372752  0.5596939658682203  0.5898343241518234
  0.7237713764341009  0.1962612494038396  0.4549902932414938
  0.2761842724013448  0.5594138833668723  0.0902071520384524
  0.1993828903764552  0.6413284095643945  0.0753503007484611
  0.1993187987054128  0.1142677409686499  0.9694908399098168
  0.3004452296025022  0.1415462973123311  0.5753755899693189
  0.7759081191013451  0.6964203801799016  0.9550455448015356
  0.2236137377445218  0.0595775416782658  0.5895193405808854
  0.2761602621023442  0.1962248977752878  0.9553896229563321
  0.3003525080771183  0.6142360834821332  0.4701042867908285
  0.7447888431756553  0.0532785150889410  0.9021480486480584
  0.7936398607800257  0.1617625254389878  0.6493469275218615
  0.7932071891005066  0.5941780247967117  0.3951168305629977
  0.7060415129929609  0.6619722788789275  0.1496930630092450
  0.7065344918614187  0.0941043212192341  0.8949564678971527
  0.2550696474853282  0.7024976096725339  0.6426003241393587
  0.7549779363643410  0.5533560709160241  0.4025244097303755
  0.7553613995146051  0.2025730783485926  0.6422012316289809
  0.2446234493640205  0.5530531878756193  0.9028861697328452
  0.2063894861065521  0.5938650346342840  0.8954068889830751
  0.2062887794355746  0.1616748913496338  0.1496978276691792
  0.2934627797086549  0.0941499124672305  0.3951491595046832
  0.7443162177560225  0.7027668438640546  0.1423709408676004
  0.2552176614032433  0.0533111737823120  0.4022818803508414
  0.2445512024299958  0.2025043662229820  0.1426165309043625
  0.2933139349014269  0.6616939249461709  0.6500801240724172
  0.8887209477950577  0.9853584010491261  0.2930794003184616
  0.8884266017105062  0.7704545349167944  0.7512391797446298
  0.6110527567500981  0.4855307721753945  0.7940437303539980
  0.6112672295489645  0.2703849851953422  0.2517068973461605
  0.1111440935988739  0.7702090229291230  0.2510638272848027
  0.3885942034996148  0.4853591014205634  0.2942674082062453
  0.1112449165446421  0.9852996774421570  0.7930657295717722
  0.3886418257201427  0.2704129683527015  0.7521306780919517
  0.7695234124483008  0.1072113420869840  0.2756947631912681
  0.7690432094643498  0.6487857245222486  0.7687424807896477
  0.7302031872363131  0.6073484390560182  0.7760663169471513
  0.7306626644637220  0.1486536938938272  0.2685849375265050
  0.2304601199302780  0.6485032275688951  0.2689945255967316
  0.2692977919319048  0.6070708391045798  0.2764135434543036
  0.2304492738435684  0.1071818717270716  0.7759468157083234
  0.2693044466329155  0.1486358236725351  0.7689044503334586
  0.0241408453004013  0.8777371769089868  0.0220542219919579
  0.9757263547808535  0.8778053034709146  0.5222043736364483
  0.4757362659131843  0.3778684393486813  0.5230781519516228
  0.5241531525151828  0.3779181892461665  0.0230969139813411
  0.3181968115114415  0.0897092483023627  0.2486615870804627
  0.7490681372890009  0.5161923596243838  0.2617323182939231
  0.7493980740517756  0.2397021714983651  0.7831221849784384
  0.7507258221394650  0.0161378768562486  0.7612494869424182
  0.7502808481972849  0.7399011829009368  0.2832418264209338
  0.6812892540152475  0.6664763865589194  0.2962115965563683
  0.1816855887621713  0.5893494400580721  0.7488486144930704
  0.1815424796291296  0.1661200545226080  0.2961664904511920
  0.8179417764351271  0.5896860384617995  0.2485815663174051
  0.2504879146467900  0.2396185793009025  0.2836064277148722
  0.2505802895176146  0.5158871761301711  0.7621220398608060
  0.2490821196687136  0.7396489269825608  0.7834069409750484
  0.3179925201497085  0.6661947468790146  0.7966751915913051
  0.6818016511438074  0.0896325740390438  0.7485036216378376
  0.8183733536426843  0.1662355027134197  0.7958011598068211
  0.2492940962774099  0.0161908543004898  0.2613102029768157
  0.6394306958958325  0.4543805100725962  0.0580800281197398
  0.3603940973591335  0.3015813185491822  0.4880362118618677
  0.4530781906143631  0.4834096001617283  0.0343873035319433
  0.0465522120428332  0.7721777133267693  0.5106248245667047
  0.1394966190612124  0.9541070042464526  0.0571184373608560
  0.4530984015646169  0.2724011766590664  0.0119868960456060
  0.9532226936989758  0.9832909635484981  0.0331046870757419
  0.8601963752879982  0.8017306425167519  0.4874390789875633
  0.0468138455293499  0.9832632705077273  0.5330765991067352
  0.5465309935101672  0.4834650410832211  0.5343188217912456
  0.6395343008607526  0.3015803386066622  0.9876437861726544
  0.8604034872140858  0.9542303382158153  0.5573055226020998
  0.5467773982608506  0.2723476119638946  0.5115918558955457
  0.3603345695891278  0.4541371547449415  0.5582962192390752
  0.1395255027546156  0.8014040414194810  0.9871220469749886
  0.9529345869084835  0.7722711759547423  0.0106952217293781
  0.9660186165525744  0.9312677671016232  0.2133547613206872
  0.9359919035454993  0.9213165135780557  0.3748812762018403
  0.9658569063215907  0.8243594472574287  0.8308094468794351
  0.5338233067577534  0.4313853061854829  0.7143874165880959
  0.5639473948261511  0.3344385199469286  0.1702142174825312
  0.0638765599136164  0.8342461097281415  0.1692579630590458
  0.5638754470224256  0.4214267871666593  0.8757658340373240
  0.5339392234793081  0.3244373727970142  0.3316644109821141
  0.4359452241481634  0.4213315443595889  0.3758281927089229
  0.0337963706054936  0.8242448989709104  0.3305587042785021
  0.0639539685415755  0.9212143407323694  0.8746157351004058
  0.4359639532711483  0.3344359704555160  0.6704392659636795
  0.9358503473948616  0.8344315650843015  0.6695775009588374
  0.0339728737536831  0.9311960670053310  0.7131261310288437
  0.4659577935137520  0.3244562133547930  0.8318974262348817
  0.4659535331145364  0.4313514980099384  0.2144247734235591
  0.8475836605348164  0.0253383061831869  0.2892956006398251
  0.8471896289184926  0.7305629468020598  0.7549948191007800
  0.6521659166244689  0.5255112979695511  0.7900879763335453
  0.6524654301126915  0.2304473975288772  0.2553109941860612
  0.1523324858208284  0.7302875125991335  0.2550006628401889
  0.3473869410927790  0.5252751486030931  0.2904546875688823
  0.1523868956915777  0.0252873398156410  0.7893968767211845
  0.3474596044254170  0.2304638221330819  0.7557241199742180
  0.8261637314764840  0.9754113399272555  0.9312051055109123
  0.8664587787466331  0.0750313510963778  0.6496860339158346
  0.8660506807472927  0.6808709805616289  0.3945078719448318
  0.6330863347566691  0.5753515276529484  0.1502361880968763
  0.6336201204867109  0.1808071617323819  0.8948395106359257
  0.1736798357249825  0.7802774363119696  0.6131273513419799
  0.6736383665433010  0.4755009785669913  0.4320641494697313
  0.6738777045518063  0.2803516444369620  0.6134468982393386
  0.3260386804852118  0.4752733358172208  0.9323808277680712
  0.1335305723112299  0.6805322442748007  0.8945961883639058
  0.1334884700502812  0.0749234653753490  0.1499060397195819
  0.3663266571028814  0.1808868742612546  0.3951272054926704
  0.8258122624974931  0.7804933636622451  0.1132056280989886
  0.1738622234023239  0.9754174375085753  0.4312214196156674
  0.3260006377454658  0.2803217460387444  0.1139273832127401
  0.3661202763131044  0.5749717092563742  0.6509642260508599
 
  0.00000000E+00  0.00000000E+00  0.00000000E+00
  0.00000000E+00  0.00000000E+00  0.00000000E+00
  0.00000000E+00  0.00000000E+00  0.00000000E+00
  0.00000000E+00  0.00000000E+00  0.00000000E+00
  0.00000000E+00  0.00000000E+00  0.00000000E+00
  0.00000000E+00  0.00000000E+00  0.00000000E+00
  0.00000000E+00  0.00000000E+00  0.00000000E+00
  0.00000000E+00  0.00000000E+00  0.00000000E+00
  0.00000000E+00  0.00000000E+00  0.00000000E+00
  0.00000000E+00  0.00000000E+00  0.00000000E+00
  0.00000000E+00  0.00000000E+00  0.00000000E+00
  0.00000000E+00  0.00000000E+00  0.00000000E+00
  0.00000000E+00  0.00000000E+00  0.00000000E+00
  0.00000000E+00  0.00000000E+00  0.00000000E+00
  0.00000000E+00  0.00000000E+00  0.00000000E+00
  0.00000000E+00  0.00000000E+00  0.00000000E+00
  0.00000000E+00  0.00000000E+00  0.00000000E+00
  0.00000000E+00  0.00000000E+00  0.00000000E+00
  0.00000000E+00  0.00000000E+00  0.00000000E+00
  0.00000000E+00  0.00000000E+00  0.00000000E+00
  0.00000000E+00  0.00000000E+00  0.00000000E+00
  0.00000000E+00  0.00000000E+00  0.00000000E+00
  0.00000000E+00  0.00000000E+00  0.00000000E+00
  0.00000000E+00  0.00000000E+00  0.00000000E+00
  0.00000000E+00  0.00000000E+00  0.00000000E+00
  0.00000000E+00  0.00000000E+00  0.00000000E+00
  0.00000000E+00  0.00000000E+00  0.00000000E+00
  0.00000000E+00  0.00000000E+00  0.00000000E+00
  0.00000000E+00  0.00000000E+00  0.00000000E+00
  0.00000000E+00  0.00000000E+00  0.00000000E+00
  0.00000000E+00  0.00000000E+00  0.00000000E+00
  0.00000000E+00  0.00000000E+00  0.00000000E+00
  0.00000000E+00  0.00000000E+00  0.00000000E+00
  0.00000000E+00  0.00000000E+00  0.00000000E+00
  0.00000000E+00  0.00000000E+00  0.00000000E+00
  0.00000000E+00  0.00000000E+00  0.00000000E+00
  0.00000000E+00  0.00000000E+00  0.00000000E+00
  0.00000000E+00  0.00000000E+00  0.00000000E+00
  0.00000000E+00  0.00000000E+00  0.00000000E+00
  0.00000000E+00  0.00000000E+00  0.00000000E+00
  0.00000000E+00  0.00000000E+00  0.00000000E+00
  0.00000000E+00  0.00000000E+00  0.00000000E+00
  0.00000000E+00  0.00000000E+00  0.00000000E+00
  0.00000000E+00  0.00000000E+00  0.00000000E+00
  0.00000000E+00  0.00000000E+00  0.00000000E+00
  0.00000000E+00  0.00000000E+00  0.00000000E+00
  0.00000000E+00  0.00000000E+00  0.00000000E+00
  0.00000000E+00  0.00000000E+00  0.00000000E+00
  0.00000000E+00  0.00000000E+00  0.00000000E+00
  0.00000000E+00  0.00000000E+00  0.00000000E+00
  0.00000000E+00  0.00000000E+00  0.00000000E+00
  0.00000000E+00  0.00000000E+00  0.00000000E+00
  0.00000000E+00  0.00000000E+00  0.00000000E+00
  0.00000000E+00  0.00000000E+00  0.00000000E+00
  0.00000000E+00  0.00000000E+00  0.00000000E+00
  0.00000000E+00  0.00000000E+00  0.00000000E+00
  0.00000000E+00  0.00000000E+00  0.00000000E+00
  0.00000000E+00  0.00000000E+00  0.00000000E+00
  0.00000000E+00  0.00000000E+00  0.00000000E+00
  0.00000000E+00  0.00000000E+00  0.00000000E+00
  0.00000000E+00  0.00000000E+00  0.00000000E+00
  0.00000000E+00  0.00000000E+00  0.00000000E+00
  0.00000000E+00  0.00000000E+00  0.00000000E+00
  0.00000000E+00  0.00000000E+00  0.00000000E+00
  0.00000000E+00  0.00000000E+00  0.00000000E+00
  0.00000000E+00  0.00000000E+00  0.00000000E+00
  0.00000000E+00  0.00000000E+00  0.00000000E+00
  0.00000000E+00  0.00000000E+00  0.00000000E+00
  0.00000000E+00  0.00000000E+00  0.00000000E+00
  0.00000000E+00  0.00000000E+00  0.00000000E+00
  0.00000000E+00  0.00000000E+00  0.00000000E+00
  0.00000000E+00  0.00000000E+00  0.00000000E+00
  0.00000000E+00  0.00000000E+00  0.00000000E+00
  0.00000000E+00  0.00000000E+00  0.00000000E+00
  0.00000000E+00  0.00000000E+00  0.00000000E+00
  0.00000000E+00  0.00000000E+00  0.00000000E+00
  0.00000000E+00  0.00000000E+00  0.00000000E+00
  0.00000000E+00  0.00000000E+00  0.00000000E+00
  0.00000000E+00  0.00000000E+00  0.00000000E+00
  0.00000000E+00  0.00000000E+00  0.00000000E+00
  0.00000000E+00  0.00000000E+00  0.00000000E+00
  0.00000000E+00  0.00000000E+00  0.00000000E+00
  0.00000000E+00  0.00000000E+00  0.00000000E+00
  0.00000000E+00  0.00000000E+00  0.00000000E+00
  0.00000000E+00  0.00000000E+00  0.00000000E+00
  0.00000000E+00  0.00000000E+00  0.00000000E+00
  0.00000000E+00  0.00000000E+00  0.00000000E+00
  0.00000000E+00  0.00000000E+00  0.00000000E+00
  0.00000000E+00  0.00000000E+00  0.00000000E+00
  0.00000000E+00  0.00000000E+00  0.00000000E+00
  0.00000000E+00  0.00000000E+00  0.00000000E+00
  0.00000000E+00  0.00000000E+00  0.00000000E+00
  0.00000000E+00  0.00000000E+00  0.00000000E+00
  0.00000000E+00  0.00000000E+00  0.00000000E+00
  0.00000000E+00  0.00000000E+00  0.00000000E+00
  0.00000000E+00  0.00000000E+00  0.00000000E+00
  0.00000000E+00  0.00000000E+00  0.00000000E+00
  0.00000000E+00  0.00000000E+00  0.00000000E+00
  0.00000000E+00  0.00000000E+00  0.00000000E+00
  0.00000000E+00  0.00000000E+00  0.00000000E+00
  0.00000000E+00  0.00000000E+00  0.00000000E+00
  0.00000000E+00  0.00000000E+00  0.00000000E+00
  0.00000000E+00  0.00000000E+00  0.00000000E+00
  0.00000000E+00  0.00000000E+00  0.00000000E+00
  0.00000000E+00  0.00000000E+00  0.00000000E+00
  0.00000000E+00  0.00000000E+00  0.00000000E+00
  0.00000000E+00  0.00000000E+00  0.00000000E+00
  0.00000000E+00  0.00000000E+00  0.00000000E+00
  0.00000000E+00  0.00000000E+00  0.00000000E+00
  0.00000000E+00  0.00000000E+00  0.00000000E+00
  0.00000000E+00  0.00000000E+00  0.00000000E+00
  0.00000000E+00  0.00000000E+00  0.00000000E+00
  0.00000000E+00  0.00000000E+00  0.00000000E+00
  0.00000000E+00  0.00000000E+00  0.00000000E+00
  0.00000000E+00  0.00000000E+00  0.00000000E+00
  0.00000000E+00  0.00000000E+00  0.00000000E+00
  0.00000000E+00  0.00000000E+00  0.00000000E+00
  0.00000000E+00  0.00000000E+00  0.00000000E+00
  0.00000000E+00  0.00000000E+00  0.00000000E+00
  0.00000000E+00  0.00000000E+00  0.00000000E+00
  0.00000000E+00  0.00000000E+00  0.00000000E+00
  0.00000000E+00  0.00000000E+00  0.00000000E+00
  0.00000000E+00  0.00000000E+00  0.00000000E+00
  0.00000000E+00  0.00000000E+00  0.00000000E+00
  0.00000000E+00  0.00000000E+00  0.00000000E+00
  0.00000000E+00  0.00000000E+00  0.00000000E+00
  0.00000000E+00  0.00000000E+00  0.00000000E+00
  0.00000000E+00  0.00000000E+00  0.00000000E+00
  0.00000000E+00  0.00000000E+00  0.00000000E+00
  0.00000000E+00  0.00000000E+00  0.00000000E+00
  0.00000000E+00  0.00000000E+00  0.00000000E+00
  0.00000000E+00  0.00000000E+00  0.00000000E+00
  0.00000000E+00  0.00000000E+00  0.00000000E+00
  0.00000000E+00  0.00000000E+00  0.00000000E+00
  0.00000000E+00  0.00000000E+00  0.00000000E+00
  0.00000000E+00  0.00000000E+00  0.00000000E+00
  0.00000000E+00  0.00000000E+00  0.00000000E+00
  0.00000000E+00  0.00000000E+00  0.00000000E+00
  0.00000000E+00  0.00000000E+00  0.00000000E+00
  0.00000000E+00  0.00000000E+00  0.00000000E+00
  0.00000000E+00  0.00000000E+00  0.00000000E+00
  0.00000000E+00  0.00000000E+00  0.00000000E+00
  0.00000000E+00  0.00000000E+00  0.00000000E+00
  0.00000000E+00  0.00000000E+00  0.00000000E+00
  0.00000000E+00  0.00000000E+00  0.00000000E+00
  0.00000000E+00  0.00000000E+00  0.00000000E+00
  0.00000000E+00  0.00000000E+00  0.00000000E+00
  0.00000000E+00  0.00000000E+00  0.00000000E+00
  0.00000000E+00  0.00000000E+00  0.00000000E+00
  0.00000000E+00  0.00000000E+00  0.00000000E+00
  0.00000000E+00  0.00000000E+00  0.00000000E+00
  0.00000000E+00  0.00000000E+00  0.00000000E+00
  0.00000000E+00  0.00000000E+00  0.00000000E+00
  0.00000000E+00  0.00000000E+00  0.00000000E+00
  0.00000000E+00  0.00000000E+00  0.00000000E+00
  0.00000000E+00  0.00000000E+00  0.00000000E+00
