FeH_exp1                                
   1.00000000000000     
    21.8463927499159709   -0.0014962117181065    0.0080065952686767
    -0.0019074662606822   27.8288142429355396    3.2209588362662021
     0.0017042889023227    0.5957007139906713    5.6402299776910834
   C    Fe   H    N    O 
    80     4    32    24    16
Direct
  0.8841549271810081  0.9667527194358314  0.0935342797858709
  0.9332502018786570  0.9825728550873123  0.4141384580992948
  0.8822750900121719  0.8162324766407565  0.9103159103772285
  0.6155449313820824  0.4670391532037428  0.6004467313213269
  0.5684294332323816  0.2993130067700491  0.0939607420665425
  0.0667596753013413  0.7983066178639291  0.0899769114422639
  0.5658272114919853  0.4825591108973057  0.9206089937785649
  0.6176372675699895  0.3155085886252778  0.4135261125064531
  0.4319412418975688  0.4811858447932309  0.4222794589148435
  0.1157074727170340  0.8139775915663705  0.4112472999952601
  0.0691995420509031  0.9813837555581202  0.9150431247256776
  0.4342764804140771  0.2980197017217492  0.5951968429967565
  0.9308533144844162  0.7996401636973118  0.5900093403445723
  0.1178151778363414  0.9650059797067172  0.5943906032638751
  0.3843885205101572  0.3136682481517852  0.9146856533650336
  0.3826201428431659  0.4649568548880154  0.1030552612740294
  0.8054954386720254  0.0359470616508304  0.4465467716633711
  0.8506929619632331  0.0795837232542027  0.0493849621600333
  0.8474764044669598  0.7037431278029160  0.9578871954178396
  0.6476143384109676  0.5801051539465547  0.5562473018805179
  0.6513527445214109  0.2027583694669559  0.4575292753250508
  0.1943753133283934  0.7444681013044345  0.0597973619752139
  0.6932529512868726  0.5366796005499666  0.9526060847221345
  0.6966135282950887  0.2464655588300602  0.0606467991027131
  0.3038194056686478  0.5344305773221194  0.4544508517112931
  0.1488287157795511  0.7012017854146464  0.4568555156046727
  0.1525731832254564  0.0775708438085871  0.5490958128755565
  0.3519673616892476  0.2006242950132773  0.9569239627718034
  0.8021245334592564  0.7471036795580090  0.5607930627775133
  0.1976149403480107  0.0338852549090944  0.9462404250212089
  0.3065476042192046  0.2444468572832648  0.5608876640673301
  0.3491852642491438  0.5776700447516703  0.0568714043440437
  0.7657668072549697  0.0787356994831896  0.4434335620031433
  0.8115384168772977  0.1222436442291652  0.0581374804768515
  0.8080942224199674  0.6611178217351323  0.9511692479839908
  0.6866823918932496  0.6228716719552523  0.5639207927353880
  0.6904837825958055  0.1601033516518982  0.4486993414843283
  0.2341937328933739  0.7016534895246451  0.0647052578871268
  0.7327224165384578  0.5796478021012703  0.9488423021021291
  0.7362551913234086  0.2036406981836691  0.0634827761412851
  0.2639165516170721  0.5772107437733780  0.4492790949992340
  0.1881745748616410  0.6585387677828649  0.4501978430318587
  0.1918445157765021  0.1201652797274733  0.5576461028275261
  0.3129221518531509  0.1579350148573653  0.9477965956322052
  0.7621460757777783  0.7043435325865133  0.5659397534806914
  0.2375633485894895  0.0765835097448928  0.9426449688755909
  0.2670666624114517  0.2015513434790606  0.5632022032225166
  0.3098606121206515  0.6203154812141563  0.0635707077380729
  0.7239733789823930  0.0777296668223286  0.6301830197488627
  0.8154144600548889  0.1641383490636201  0.8738765610279202
  0.8120011020885229  0.6193805229472815  0.1362906586507648
  0.6826514287144008  0.6646583775588937  0.3791593933353070
  0.6865541745829589  0.1182046583281107  0.6328721140293041
  0.2761530705761146  0.7024476101349038  0.8787120525185372
  0.7745644162127192  0.5788400529348365  0.1349988037204000
  0.7779934928277257  0.2046207829975515  0.8766077286956317
  0.2219118399958404  0.5763967162532566  0.6350943148009804
  0.1842410223129605  0.6168405919930464  0.6355724574846136
  0.1879499732563730  0.1620840985128851  0.3735729723763441
  0.3168771945032205  0.1159953396608486  0.1316839541957009
  0.7201620472468235  0.7051778354011020  0.3801825936274668
  0.2793977289125706  0.0755384729458299  0.1290972159974189
  0.2253268926177654  0.2025815929441706  0.3764827211103423
  0.3137451423169608  0.6619762327415586  0.8780026935820189
  0.8855327678794183  0.9987093419773529  0.2517201560160416
  0.8829178564927176  0.7841724172034787  0.7526186461360140
  0.6135513424202017  0.4990137893874120  0.7584972451558585
  0.6164168599596778  0.2835297949882332  0.2554753281651472
  0.1143131333484675  0.7820405384682658  0.2529595543109124
  0.3839405448165181  0.4969835481260247  0.2608694230836264
  0.1170957070155794  0.9969849018735175  0.7524995179166254
  0.3863144982332969  0.2817448037542789  0.7563807859970524
  0.7701220080272293  0.1205874486376999  0.2521901107361089
  0.7665292742418401  0.6626273872454433  0.7579548486955687
  0.7282330949121132  0.6213984181734205  0.7571387372779270
  0.7318897032960123  0.1617713549437667  0.2546186443896516
  0.2298311951957004  0.6600112137369010  0.2571038151954070
  0.2682615643513486  0.6188468888610430  0.2568200906271798
  0.2332639163506371  0.1184542307336400  0.7515202217207317
  0.2714858529543562  0.1596373488021285  0.7539774353245079
  0.9809337246108285  0.8906525274578740  0.0022972981295624
  0.0192929096327177  0.8903741092559798  0.5020569785599349
  0.5197698044078933  0.3903523106937641  0.5082079032511473
  0.4804759218434285  0.3900800343737814  0.0083596805264179
  0.3493069079384554  0.1156966871520666  0.2779470040211791
  0.7772099349507826  0.5460487058234591  0.2792362195386815
  0.7805334604030278  0.2375118546650370  0.7328690166258838
  0.7213998702883799  0.0448365208525345  0.7739015337333655
  0.7175499668643397  0.7379482475966697  0.2358096072785401
  0.6501500984406263  0.6647803240740302  0.2333346668274459
  0.1516447630374174  0.6167106747239046  0.7812427784552654
  0.1555677051174982  0.1623607565024798  0.2271771809817196
  0.8444639270117236  0.6192698310745754  0.2822231778261397
  0.2227241009230383  0.2355206523035207  0.2330867547756981
  0.2193692484042131  0.5436905315916576  0.7798417196195899
  0.2787206687887291  0.7351659535669413  0.7340084176549269
  0.3462580895995586  0.6620452748503993  0.7321041233708740
  0.6541678133062447  0.1179590789040006  0.7793689144453353
  0.8477723460746986  0.1644108350924256  0.7272632147531652
  0.2819165723018600  0.0426401959030542  0.2727646219211266
  0.5491234486197882  0.4969668460088243  0.0714557345165971
  0.4510290252575686  0.2835824326311496  0.4445009797490016
  0.3531775252804152  0.4650602444845049  0.9485304032608042
  0.1449593158403886  0.8136301072595131  0.5665842024917680
  0.0532691852698051  0.9960757859659353  0.0661171333389419
  0.3547681032628205  0.3132887467962178  0.0691292166508504
  0.8548435472337843  0.9670228071456961  0.9384530623073601
  0.9468013737484782  0.7848396401499613  0.4392663319579455
  0.1470487902624882  0.9649466976523442  0.4392878329902032
  0.6450374550091240  0.4675075004514540  0.4455210738534774
  0.5521180644250450  0.2846708386830485  0.9433234042471241
  0.9495589268800160  0.9970695644927829  0.5652273763576190
  0.6470364157985244  0.3154226702143674  0.5681623287876221
  0.4483486389627913  0.4958588413545115  0.5726621520336650
  0.0505158272809609  0.7838680918839316  0.9386444525735627
  0.8530918903548752  0.8163645868830685  0.0654557656040495
  0.9286071478912561  0.9331911573321037  0.1598864697628741
  0.9587893033091888  0.9428901399284726  0.3559940405971957
  0.9273310701976740  0.8492542237492771  0.8434130173415610
  0.5714275297781199  0.4331530177546767  0.6666136071380109
  0.5425830731595696  0.3388401022788514  0.1524683991363531
  0.0413058099137942  0.8380323978744428  0.1480413231098652
  0.5408615280536750  0.4426771758998100  0.8623953835667990
  0.5728381099076714  0.3487950341794530  0.3478539568652579
  0.4576919300356295  0.4416041824635286  0.3639210953940264
  0.0713996067752021  0.8476458093365835  0.3445124096196537
  0.0429142411412400  0.9419784803861759  0.8570254689935268
  0.4594256019404312  0.3377655166130680  0.6541177786462242
  0.9571966613064333  0.8390742390672159  0.6475479308179999
  0.0727914162562371  0.9319233749737421  0.6608954881624101
  0.4287612165718926  0.3473667888420309  0.8495091111083610
  0.4273718874270500  0.4316310410867459  0.1687031919164284
  0.8463519104627437  0.0393412907793191  0.2497734491772334
  0.8432300403814992  0.7437708152178999  0.7565058483851885
  0.6523061331322140  0.5398911041319963  0.7565177481570586
  0.6557592280127906  0.2430183896311675  0.2573846284406258
  0.1533658195233585  0.7413032081464195  0.2558876078790320
  0.3446994349185246  0.5376004236893834  0.2579916314677249
  0.1567479276936226  0.0373632384123326  0.7496759234750101
  0.3474115071786770  0.2409957661704567  0.7573865628235268
  0.8034932550554501  0.9987498514035167  0.6087592480409896
  0.8853724403515741  0.0782849745898204  0.8799717380635812
  0.8823452566761674  0.7051608168070729  0.1263733611288558
  0.6127955451357678  0.5786672285865109  0.3876200072610985
  0.6166218799356571  0.2040402424466237  0.6268041960388899
  0.1964635793940204  0.7815107537854971  0.8967084103253100
  0.6956281922297549  0.4994513318679026  0.1145174265561053
  0.6986701851471153  0.2837268094899343  0.8988294853483865
  0.3019334970479903  0.4974476564807659  0.6179666068609677
  0.1138568536696170  0.7026106181112226  0.6252255052266449
  0.1178512446439584  0.0763207965079786  0.3799214335690237
  0.3867244676137460  0.2018776316394977  0.1259785794588240
  0.8001837540674330  0.7841749063643206  0.3978445671694146
  0.1993678928798488  0.9967271340811408  0.1087397711848581
  0.3043122768293784  0.2817942581026429  0.3996407645357536
  0.3841540996904769  0.5762360295214322  0.8885309304887201
 
  0.00000000E+00  0.00000000E+00  0.00000000E+00
  0.00000000E+00  0.00000000E+00  0.00000000E+00
  0.00000000E+00  0.00000000E+00  0.00000000E+00
  0.00000000E+00  0.00000000E+00  0.00000000E+00
  0.00000000E+00  0.00000000E+00  0.00000000E+00
  0.00000000E+00  0.00000000E+00  0.00000000E+00
  0.00000000E+00  0.00000000E+00  0.00000000E+00
  0.00000000E+00  0.00000000E+00  0.00000000E+00
  0.00000000E+00  0.00000000E+00  0.00000000E+00
  0.00000000E+00  0.00000000E+00  0.00000000E+00
  0.00000000E+00  0.00000000E+00  0.00000000E+00
  0.00000000E+00  0.00000000E+00  0.00000000E+00
  0.00000000E+00  0.00000000E+00  0.00000000E+00
  0.00000000E+00  0.00000000E+00  0.00000000E+00
  0.00000000E+00  0.00000000E+00  0.00000000E+00
  0.00000000E+00  0.00000000E+00  0.00000000E+00
  0.00000000E+00  0.00000000E+00  0.00000000E+00
  0.00000000E+00  0.00000000E+00  0.00000000E+00
  0.00000000E+00  0.00000000E+00  0.00000000E+00
  0.00000000E+00  0.00000000E+00  0.00000000E+00
  0.00000000E+00  0.00000000E+00  0.00000000E+00
  0.00000000E+00  0.00000000E+00  0.00000000E+00
  0.00000000E+00  0.00000000E+00  0.00000000E+00
  0.00000000E+00  0.00000000E+00  0.00000000E+00
  0.00000000E+00  0.00000000E+00  0.00000000E+00
  0.00000000E+00  0.00000000E+00  0.00000000E+00
  0.00000000E+00  0.00000000E+00  0.00000000E+00
  0.00000000E+00  0.00000000E+00  0.00000000E+00
  0.00000000E+00  0.00000000E+00  0.00000000E+00
  0.00000000E+00  0.00000000E+00  0.00000000E+00
  0.00000000E+00  0.00000000E+00  0.00000000E+00
  0.00000000E+00  0.00000000E+00  0.00000000E+00
  0.00000000E+00  0.00000000E+00  0.00000000E+00
  0.00000000E+00  0.00000000E+00  0.00000000E+00
  0.00000000E+00  0.00000000E+00  0.00000000E+00
  0.00000000E+00  0.00000000E+00  0.00000000E+00
  0.00000000E+00  0.00000000E+00  0.00000000E+00
  0.00000000E+00  0.00000000E+00  0.00000000E+00
  0.00000000E+00  0.00000000E+00  0.00000000E+00
  0.00000000E+00  0.00000000E+00  0.00000000E+00
  0.00000000E+00  0.00000000E+00  0.00000000E+00
  0.00000000E+00  0.00000000E+00  0.00000000E+00
  0.00000000E+00  0.00000000E+00  0.00000000E+00
  0.00000000E+00  0.00000000E+00  0.00000000E+00
  0.00000000E+00  0.00000000E+00  0.00000000E+00
  0.00000000E+00  0.00000000E+00  0.00000000E+00
  0.00000000E+00  0.00000000E+00  0.00000000E+00
  0.00000000E+00  0.00000000E+00  0.00000000E+00
  0.00000000E+00  0.00000000E+00  0.00000000E+00
  0.00000000E+00  0.00000000E+00  0.00000000E+00
  0.00000000E+00  0.00000000E+00  0.00000000E+00
  0.00000000E+00  0.00000000E+00  0.00000000E+00
  0.00000000E+00  0.00000000E+00  0.00000000E+00
  0.00000000E+00  0.00000000E+00  0.00000000E+00
  0.00000000E+00  0.00000000E+00  0.00000000E+00
  0.00000000E+00  0.00000000E+00  0.00000000E+00
  0.00000000E+00  0.00000000E+00  0.00000000E+00
  0.00000000E+00  0.00000000E+00  0.00000000E+00
  0.00000000E+00  0.00000000E+00  0.00000000E+00
  0.00000000E+00  0.00000000E+00  0.00000000E+00
  0.00000000E+00  0.00000000E+00  0.00000000E+00
  0.00000000E+00  0.00000000E+00  0.00000000E+00
  0.00000000E+00  0.00000000E+00  0.00000000E+00
  0.00000000E+00  0.00000000E+00  0.00000000E+00
  0.00000000E+00  0.00000000E+00  0.00000000E+00
  0.00000000E+00  0.00000000E+00  0.00000000E+00
  0.00000000E+00  0.00000000E+00  0.00000000E+00
  0.00000000E+00  0.00000000E+00  0.00000000E+00
  0.00000000E+00  0.00000000E+00  0.00000000E+00
  0.00000000E+00  0.00000000E+00  0.00000000E+00
  0.00000000E+00  0.00000000E+00  0.00000000E+00
  0.00000000E+00  0.00000000E+00  0.00000000E+00
  0.00000000E+00  0.00000000E+00  0.00000000E+00
  0.00000000E+00  0.00000000E+00  0.00000000E+00
  0.00000000E+00  0.00000000E+00  0.00000000E+00
  0.00000000E+00  0.00000000E+00  0.00000000E+00
  0.00000000E+00  0.00000000E+00  0.00000000E+00
  0.00000000E+00  0.00000000E+00  0.00000000E+00
  0.00000000E+00  0.00000000E+00  0.00000000E+00
  0.00000000E+00  0.00000000E+00  0.00000000E+00
  0.00000000E+00  0.00000000E+00  0.00000000E+00
  0.00000000E+00  0.00000000E+00  0.00000000E+00
  0.00000000E+00  0.00000000E+00  0.00000000E+00
  0.00000000E+00  0.00000000E+00  0.00000000E+00
  0.00000000E+00  0.00000000E+00  0.00000000E+00
  0.00000000E+00  0.00000000E+00  0.00000000E+00
  0.00000000E+00  0.00000000E+00  0.00000000E+00
  0.00000000E+00  0.00000000E+00  0.00000000E+00
  0.00000000E+00  0.00000000E+00  0.00000000E+00
  0.00000000E+00  0.00000000E+00  0.00000000E+00
  0.00000000E+00  0.00000000E+00  0.00000000E+00
  0.00000000E+00  0.00000000E+00  0.00000000E+00
  0.00000000E+00  0.00000000E+00  0.00000000E+00
  0.00000000E+00  0.00000000E+00  0.00000000E+00
  0.00000000E+00  0.00000000E+00  0.00000000E+00
  0.00000000E+00  0.00000000E+00  0.00000000E+00
  0.00000000E+00  0.00000000E+00  0.00000000E+00
  0.00000000E+00  0.00000000E+00  0.00000000E+00
  0.00000000E+00  0.00000000E+00  0.00000000E+00
  0.00000000E+00  0.00000000E+00  0.00000000E+00
  0.00000000E+00  0.00000000E+00  0.00000000E+00
  0.00000000E+00  0.00000000E+00  0.00000000E+00
  0.00000000E+00  0.00000000E+00  0.00000000E+00
  0.00000000E+00  0.00000000E+00  0.00000000E+00
  0.00000000E+00  0.00000000E+00  0.00000000E+00
  0.00000000E+00  0.00000000E+00  0.00000000E+00
  0.00000000E+00  0.00000000E+00  0.00000000E+00
  0.00000000E+00  0.00000000E+00  0.00000000E+00
  0.00000000E+00  0.00000000E+00  0.00000000E+00
  0.00000000E+00  0.00000000E+00  0.00000000E+00
  0.00000000E+00  0.00000000E+00  0.00000000E+00
  0.00000000E+00  0.00000000E+00  0.00000000E+00
  0.00000000E+00  0.00000000E+00  0.00000000E+00
  0.00000000E+00  0.00000000E+00  0.00000000E+00
  0.00000000E+00  0.00000000E+00  0.00000000E+00
  0.00000000E+00  0.00000000E+00  0.00000000E+00
  0.00000000E+00  0.00000000E+00  0.00000000E+00
  0.00000000E+00  0.00000000E+00  0.00000000E+00
  0.00000000E+00  0.00000000E+00  0.00000000E+00
  0.00000000E+00  0.00000000E+00  0.00000000E+00
  0.00000000E+00  0.00000000E+00  0.00000000E+00
  0.00000000E+00  0.00000000E+00  0.00000000E+00
  0.00000000E+00  0.00000000E+00  0.00000000E+00
  0.00000000E+00  0.00000000E+00  0.00000000E+00
  0.00000000E+00  0.00000000E+00  0.00000000E+00
  0.00000000E+00  0.00000000E+00  0.00000000E+00
  0.00000000E+00  0.00000000E+00  0.00000000E+00
  0.00000000E+00  0.00000000E+00  0.00000000E+00
  0.00000000E+00  0.00000000E+00  0.00000000E+00
  0.00000000E+00  0.00000000E+00  0.00000000E+00
  0.00000000E+00  0.00000000E+00  0.00000000E+00
  0.00000000E+00  0.00000000E+00  0.00000000E+00
  0.00000000E+00  0.00000000E+00  0.00000000E+00
  0.00000000E+00  0.00000000E+00  0.00000000E+00
  0.00000000E+00  0.00000000E+00  0.00000000E+00
  0.00000000E+00  0.00000000E+00  0.00000000E+00
  0.00000000E+00  0.00000000E+00  0.00000000E+00
  0.00000000E+00  0.00000000E+00  0.00000000E+00
  0.00000000E+00  0.00000000E+00  0.00000000E+00
  0.00000000E+00  0.00000000E+00  0.00000000E+00
  0.00000000E+00  0.00000000E+00  0.00000000E+00
  0.00000000E+00  0.00000000E+00  0.00000000E+00
  0.00000000E+00  0.00000000E+00  0.00000000E+00
  0.00000000E+00  0.00000000E+00  0.00000000E+00
  0.00000000E+00  0.00000000E+00  0.00000000E+00
  0.00000000E+00  0.00000000E+00  0.00000000E+00
  0.00000000E+00  0.00000000E+00  0.00000000E+00
  0.00000000E+00  0.00000000E+00  0.00000000E+00
  0.00000000E+00  0.00000000E+00  0.00000000E+00
  0.00000000E+00  0.00000000E+00  0.00000000E+00
  0.00000000E+00  0.00000000E+00  0.00000000E+00
  0.00000000E+00  0.00000000E+00  0.00000000E+00
  0.00000000E+00  0.00000000E+00  0.00000000E+00
  0.00000000E+00  0.00000000E+00  0.00000000E+00
  0.00000000E+00  0.00000000E+00  0.00000000E+00
  0.00000000E+00  0.00000000E+00  0.00000000E+00
