CoH_exp13                               
   1.00000000000000     
    24.6086486271754801   -0.0009668103016005    0.0020156097866013
    -0.0000357537220142   24.7979743477283989    1.6432830522931892
     0.0011769073719776   -0.2557807292477484    7.4801227049296548
   C    Co   H    N    O 
    80     4    32    24    16
Direct
  0.9123957008861723  0.9689608629939528  0.1313252611653937
  0.9226509546967279  0.9760771715417818  0.4247510004185600
  0.9128606511440012  0.8114941993448852  0.9223026753325954
  0.5874937398004363  0.4690445585813592  0.6308025643612751
  0.5766368394309396  0.3044387843058445  0.1286219844021801
  0.0766108924517113  0.8044376029169484  0.1289681139908936
  0.5772964656909707  0.4760132677794573  0.9242984619530077
  0.5870757813060692  0.3115725546742567  0.4219521321565551
  0.4225206531556793  0.4759954227159824  0.4241918612397768
  0.0870838512762120  0.8115320952468394  0.4223082594456145
  0.0772697677917265  0.9760405498711435  0.9247971195725455
  0.4232890290710998  0.3044429842126419  0.6286265840569314
  0.9233320870307651  0.8044508042592824  0.6289275839319046
  0.0875280305670287  0.9689850222157261  0.6313465782233223
  0.4128740860448445  0.3115169794109676  0.9220114029788391
  0.4121767273033683  0.4687842858104005  0.1308318928490593
  0.8184547764252343  0.0419260870021319  0.4319844833940962
  0.8470537978485311  0.0726697090990669  0.1238133116629072
  0.8480811237139463  0.7073552594407957  0.9291244141468553
  0.6529104129364001  0.5726963589345715  0.6235887782833913
  0.6518456805555104  0.2073918903454768  0.4290652375876576
  0.1803636126927017  0.7380099671619007  0.1209427701794468
  0.6814649031064519  0.5418803743795451  0.9317155190425908
  0.6804303536824889  0.2380634118803968  0.1208624926632709
  0.3181948993485264  0.5416743941716788  0.4315256832794461
  0.1518085636460498  0.7073452055698013  0.4291722483501985
  0.1528905240272422  0.0726673575124366  0.6239113858267658
  0.3480918862540250  0.2073634645466669  0.9290781845345322
  0.8195380435991595  0.7380748945411568  0.6209476584805387
  0.1814547815727323  0.0419189506651634  0.9320344531213394
  0.3195220464730824  0.2380506551811052  0.6209281392544455
  0.3467755028793604  0.5724251574263945  0.1233249575136242
  0.7761817303798395  0.0847172767178535  0.4281789033215162
  0.8039183292863541  0.1145465785191462  0.1260885671398810
  0.8049999918878896  0.6653881966295145  0.9267620758276678
  0.6960503194542724  0.6145582418046800  0.6259493341017333
  0.6949334501669497  0.1654315432388813  0.4267769528611893
  0.2225293819272736  0.6951120086194678  0.1245916618566199
  0.7237493055320599  0.5846649988995267  0.9279852296344018
  0.7226363230798896  0.1952034009222672  0.1246163877206072
  0.2759518623497215  0.5844983430972590  0.4278182991828885
  0.1948207734687770  0.6653182994692060  0.4267125631016881
  0.1960288015740943  0.1145399660254043  0.6261529247778483
  0.3049964045331137  0.1654080346357105  0.9268247128820377
  0.7773229225219538  0.6952276807535966  0.6246533378929300
  0.2237414153368178  0.0846970285968283  0.9281899210524287
  0.2772946877357256  0.1952145140450270  0.6247177760717904
  0.3037151607818558  0.6143705837437636  0.1257965716856546
  0.7422501663933403  0.0905278215082745  0.5750889934151573
  0.7969302645806238  0.1493069518490913  0.9783990889617726
  0.7980401028574846  0.6305409067296779  0.0742958203320399
  0.7030636857731949  0.6493458632469427  0.4783333022767451
  0.7018777919669077  0.1306234533734596  0.5744042901284772
  0.2564138180541065  0.6892802551123083  0.9775933764253679
  0.7576735920562996  0.5904419914208532  0.0748745596248028
  0.7565365345330122  0.1893650831533336  0.9776528460006091
  0.2420572419038791  0.5903386838604447  0.5748074738301341
  0.2017393811429642  0.6304829178674822  0.5742738370906437
  0.2030162430586770  0.1493197683861993  0.4784877712335316
  0.2980512985868558  0.1305809510199936  0.0744084008891548
  0.7434514161130465  0.6894132027593827  0.4776650812088050
  0.2576684258472852  0.0904924791004476  0.0750741840061693
  0.2434126008041133  0.1893826284286035  0.4777484560411764
  0.2967776252933305  0.6491905822092789  0.9782357023763595
  0.8929082658605338  0.9970983490145429  0.2782088407973049
  0.8936537652692422  0.7832183371619763  0.7753232308677624
  0.6070302577554472  0.4970963398754265  0.7777829394521660
  0.6062932890270289  0.2832450593008176  0.2750898047127208
  0.1062818286086937  0.7832255307435361  0.2753648591358413
  0.3926862514605602  0.4969162130222031  0.2777167875042394
  0.1070141190582845  0.9970923754878029  0.7782632621113308
  0.3936487977893606  0.2832169796327904  0.7751190629214690
  0.7698805289325890  0.1196457538424198  0.2767812320476324
  0.7709841643932478  0.6602881454006777  0.7760467865102783
  0.7300647116259000  0.6196263108318547  0.7766587889622230
  0.7289609600537759  0.1602962770181975  0.2760738377814604
  0.2288261609045392  0.6601671920931409  0.2759569903407453
  0.2696844918228933  0.6194632352860054  0.2765092143183097
  0.2300579658328914  0.1196359995117859  0.7768175079551654
  0.2709674154677302  0.1602958721705505  0.7761444487451072
  0.9972367114585339  0.8905291504113890  0.0268468735370107
  0.0026900970732910  0.8905719360943962  0.5268499266048323
  0.5026313221286145  0.3905667960570156  0.5262398197079960
  0.4972502276828763  0.3905309722837345  0.0263520464868705
  0.3245966384025607  0.1351316912253893  0.1895014475997243
  0.7521937016916169  0.5631807587950277  0.1904073768292278
  0.7510449449966998  0.2165439832107481  0.8619087066093414
  0.7477127241268775  0.0632850026479090  0.6906889358149257
  0.7489606569828737  0.7166096934493567  0.3619579082330020
  0.6765392955975074  0.6447951622803032  0.3632197770452876
  0.1752342366298052  0.6350957897606193  0.6894703589888991
  0.1764786437408361  0.1447637977339014  0.3633805111047650
  0.8245669335837675  0.6350904824888346  0.1894128440771254
  0.2489130085646778  0.2165807433982749  0.3620375044681836
  0.2474931843331163  0.5630709057737135  0.6903533332552740
  0.2509512919830925  0.7164921268700084  0.8619152761489346
  0.3233331124114116  0.6446323486500063  0.8631460233476318
  0.6753304791621701  0.1351979910329462  0.6894953160609276
  0.8234799722105848  0.1447450425837289  0.8632961129607892
  0.2521868090156190  0.0632401856131324  0.1906472407059709
  0.5797484459771312  0.4855623190508993  0.0642040530557679
  0.4210333217273643  0.2947554420914287  0.4888175532611143
  0.4010291059304976  0.4726047700619844  0.9910491208149779
  0.0981775856772273  0.8075691241443863  0.5621142869023572
  0.0797027267538937  0.9856338113360650  0.0646740256261253
  0.4018038240539568  0.3075525258710243  0.0618674603104026
  0.9013163568557516  0.9728564581955936  0.9914993179352081
  0.9211123143282549  0.7947845268341212  0.4890855564870407
  0.0986151116647065  0.9729002347009299  0.4915272696233899
  0.5985464280496444  0.4730071345663447  0.4909551063672168
  0.5788749711458721  0.2946998757794432  0.9888441967538881
  0.9202294408398330  0.9857098871628125  0.5645982330304236
  0.5981627297307952  0.3076243825482692  0.5617729663346154
  0.4201364249906945  0.4856609713442026  0.5640280669026438
  0.0788266529340547  0.7947375197077307  0.9891415581762573
  0.9017684744565599  0.8075130742872005  0.0621253889925839
  0.9510055988501236  0.9337093677156147  0.1869351736019098
  0.9574072308390811  0.9381492014547206  0.3685605733438280
  0.9512148535727647  0.8470542972908746  0.8667995609279942
  0.5488684697922537  0.4337864779505978  0.6863267001266209
  0.5422269828506074  0.3426734406900991  0.1847655595772508
  0.0422073714035562  0.8426606253470013  0.1852287498848284
  0.5425075032545195  0.4381347599076122  0.8680189850505542
  0.5487363776208696  0.3471274194148108  0.3663194309768301
  0.4573297423951104  0.4381202840738823  0.3679657461703414
  0.0487414010075113  0.8470955727758138  0.3667815304348210
  0.0425136133902910  0.9381233234589601  0.8685682603122373
  0.4577045322453159  0.3426662180034654  0.6847843658424324
  0.9577394529679282  0.8426586516340535  0.6852289552818931
  0.0489152154956756  0.9337232720450572  0.6869245737582261
  0.4512125709319790  0.3470783962949042  0.8663663936927364
  0.4508820128372477  0.4336264984645695  0.1863864781902294
  0.8520234891603451  0.0379217290084526  0.2779573182833346
  0.8529809515786013  0.7421850971828619  0.7751527001352372
  0.6479277475563094  0.5379105098926544  0.7776428712229588
  0.6469566182758584  0.2422003452196151  0.2750509742742580
  0.1469168208816924  0.7421581374273529  0.2751660564906686
  0.3517729299215517  0.5376983693624524  0.2774950583197864
  0.1479006981394591  0.0379145387118882  0.7780309843373843
  0.3529813960412582  0.2421812200403224  0.7751013556776982
  0.8244230171762652  0.0113010418603068  0.5625156061545198
  0.8771546106217087  0.0680285627916035  0.9943046109642495
  0.8781714732305232  0.7120373912910765  0.0585767101130799
  0.6228035855269241  0.5680992260581519  0.4941272429312491
  0.6217429893871440  0.2120781864770862  0.5585252032986219
  0.1744482259680709  0.7686332822250890  0.9903742635506774
  0.6754669283265073  0.5112308786220510  0.0621883392817253
  0.6745035809318267  0.2686674930146253  0.9902557319100751
  0.3241263345338581  0.5109948069538248  0.5619358531487819
  0.1217587886477318  0.7120768029371121  0.5587588118175688
  0.1227953797058774  0.0680360690696489  0.4944343360994097
  0.3782079063552857  0.2120346011055076  0.0584707059511018
  0.8255059289248905  0.7686919654645692  0.4903804724504823
  0.1754704546644419  0.0112990355109375  0.0625791632190129
  0.3254863779271773  0.2686374768509481  0.4902869974952679
  0.3767942466767664  0.5677320964037236  0.9936412184619670
 
  0.00000000E+00  0.00000000E+00  0.00000000E+00
  0.00000000E+00  0.00000000E+00  0.00000000E+00
  0.00000000E+00  0.00000000E+00  0.00000000E+00
  0.00000000E+00  0.00000000E+00  0.00000000E+00
  0.00000000E+00  0.00000000E+00  0.00000000E+00
  0.00000000E+00  0.00000000E+00  0.00000000E+00
  0.00000000E+00  0.00000000E+00  0.00000000E+00
  0.00000000E+00  0.00000000E+00  0.00000000E+00
  0.00000000E+00  0.00000000E+00  0.00000000E+00
  0.00000000E+00  0.00000000E+00  0.00000000E+00
  0.00000000E+00  0.00000000E+00  0.00000000E+00
  0.00000000E+00  0.00000000E+00  0.00000000E+00
  0.00000000E+00  0.00000000E+00  0.00000000E+00
  0.00000000E+00  0.00000000E+00  0.00000000E+00
  0.00000000E+00  0.00000000E+00  0.00000000E+00
  0.00000000E+00  0.00000000E+00  0.00000000E+00
  0.00000000E+00  0.00000000E+00  0.00000000E+00
  0.00000000E+00  0.00000000E+00  0.00000000E+00
  0.00000000E+00  0.00000000E+00  0.00000000E+00
  0.00000000E+00  0.00000000E+00  0.00000000E+00
  0.00000000E+00  0.00000000E+00  0.00000000E+00
  0.00000000E+00  0.00000000E+00  0.00000000E+00
  0.00000000E+00  0.00000000E+00  0.00000000E+00
  0.00000000E+00  0.00000000E+00  0.00000000E+00
  0.00000000E+00  0.00000000E+00  0.00000000E+00
  0.00000000E+00  0.00000000E+00  0.00000000E+00
  0.00000000E+00  0.00000000E+00  0.00000000E+00
  0.00000000E+00  0.00000000E+00  0.00000000E+00
  0.00000000E+00  0.00000000E+00  0.00000000E+00
  0.00000000E+00  0.00000000E+00  0.00000000E+00
  0.00000000E+00  0.00000000E+00  0.00000000E+00
  0.00000000E+00  0.00000000E+00  0.00000000E+00
  0.00000000E+00  0.00000000E+00  0.00000000E+00
  0.00000000E+00  0.00000000E+00  0.00000000E+00
  0.00000000E+00  0.00000000E+00  0.00000000E+00
  0.00000000E+00  0.00000000E+00  0.00000000E+00
  0.00000000E+00  0.00000000E+00  0.00000000E+00
  0.00000000E+00  0.00000000E+00  0.00000000E+00
  0.00000000E+00  0.00000000E+00  0.00000000E+00
  0.00000000E+00  0.00000000E+00  0.00000000E+00
  0.00000000E+00  0.00000000E+00  0.00000000E+00
  0.00000000E+00  0.00000000E+00  0.00000000E+00
  0.00000000E+00  0.00000000E+00  0.00000000E+00
  0.00000000E+00  0.00000000E+00  0.00000000E+00
  0.00000000E+00  0.00000000E+00  0.00000000E+00
  0.00000000E+00  0.00000000E+00  0.00000000E+00
  0.00000000E+00  0.00000000E+00  0.00000000E+00
  0.00000000E+00  0.00000000E+00  0.00000000E+00
  0.00000000E+00  0.00000000E+00  0.00000000E+00
  0.00000000E+00  0.00000000E+00  0.00000000E+00
  0.00000000E+00  0.00000000E+00  0.00000000E+00
  0.00000000E+00  0.00000000E+00  0.00000000E+00
  0.00000000E+00  0.00000000E+00  0.00000000E+00
  0.00000000E+00  0.00000000E+00  0.00000000E+00
  0.00000000E+00  0.00000000E+00  0.00000000E+00
  0.00000000E+00  0.00000000E+00  0.00000000E+00
  0.00000000E+00  0.00000000E+00  0.00000000E+00
  0.00000000E+00  0.00000000E+00  0.00000000E+00
  0.00000000E+00  0.00000000E+00  0.00000000E+00
  0.00000000E+00  0.00000000E+00  0.00000000E+00
  0.00000000E+00  0.00000000E+00  0.00000000E+00
  0.00000000E+00  0.00000000E+00  0.00000000E+00
  0.00000000E+00  0.00000000E+00  0.00000000E+00
  0.00000000E+00  0.00000000E+00  0.00000000E+00
  0.00000000E+00  0.00000000E+00  0.00000000E+00
  0.00000000E+00  0.00000000E+00  0.00000000E+00
  0.00000000E+00  0.00000000E+00  0.00000000E+00
  0.00000000E+00  0.00000000E+00  0.00000000E+00
  0.00000000E+00  0.00000000E+00  0.00000000E+00
  0.00000000E+00  0.00000000E+00  0.00000000E+00
  0.00000000E+00  0.00000000E+00  0.00000000E+00
  0.00000000E+00  0.00000000E+00  0.00000000E+00
  0.00000000E+00  0.00000000E+00  0.00000000E+00
  0.00000000E+00  0.00000000E+00  0.00000000E+00
  0.00000000E+00  0.00000000E+00  0.00000000E+00
  0.00000000E+00  0.00000000E+00  0.00000000E+00
  0.00000000E+00  0.00000000E+00  0.00000000E+00
  0.00000000E+00  0.00000000E+00  0.00000000E+00
  0.00000000E+00  0.00000000E+00  0.00000000E+00
  0.00000000E+00  0.00000000E+00  0.00000000E+00
  0.00000000E+00  0.00000000E+00  0.00000000E+00
  0.00000000E+00  0.00000000E+00  0.00000000E+00
  0.00000000E+00  0.00000000E+00  0.00000000E+00
  0.00000000E+00  0.00000000E+00  0.00000000E+00
  0.00000000E+00  0.00000000E+00  0.00000000E+00
  0.00000000E+00  0.00000000E+00  0.00000000E+00
  0.00000000E+00  0.00000000E+00  0.00000000E+00
  0.00000000E+00  0.00000000E+00  0.00000000E+00
  0.00000000E+00  0.00000000E+00  0.00000000E+00
  0.00000000E+00  0.00000000E+00  0.00000000E+00
  0.00000000E+00  0.00000000E+00  0.00000000E+00
  0.00000000E+00  0.00000000E+00  0.00000000E+00
  0.00000000E+00  0.00000000E+00  0.00000000E+00
  0.00000000E+00  0.00000000E+00  0.00000000E+00
  0.00000000E+00  0.00000000E+00  0.00000000E+00
  0.00000000E+00  0.00000000E+00  0.00000000E+00
  0.00000000E+00  0.00000000E+00  0.00000000E+00
  0.00000000E+00  0.00000000E+00  0.00000000E+00
  0.00000000E+00  0.00000000E+00  0.00000000E+00
  0.00000000E+00  0.00000000E+00  0.00000000E+00
  0.00000000E+00  0.00000000E+00  0.00000000E+00
  0.00000000E+00  0.00000000E+00  0.00000000E+00
  0.00000000E+00  0.00000000E+00  0.00000000E+00
  0.00000000E+00  0.00000000E+00  0.00000000E+00
  0.00000000E+00  0.00000000E+00  0.00000000E+00
  0.00000000E+00  0.00000000E+00  0.00000000E+00
  0.00000000E+00  0.00000000E+00  0.00000000E+00
  0.00000000E+00  0.00000000E+00  0.00000000E+00
  0.00000000E+00  0.00000000E+00  0.00000000E+00
  0.00000000E+00  0.00000000E+00  0.00000000E+00
  0.00000000E+00  0.00000000E+00  0.00000000E+00
  0.00000000E+00  0.00000000E+00  0.00000000E+00
  0.00000000E+00  0.00000000E+00  0.00000000E+00
  0.00000000E+00  0.00000000E+00  0.00000000E+00
  0.00000000E+00  0.00000000E+00  0.00000000E+00
  0.00000000E+00  0.00000000E+00  0.00000000E+00
  0.00000000E+00  0.00000000E+00  0.00000000E+00
  0.00000000E+00  0.00000000E+00  0.00000000E+00
  0.00000000E+00  0.00000000E+00  0.00000000E+00
  0.00000000E+00  0.00000000E+00  0.00000000E+00
  0.00000000E+00  0.00000000E+00  0.00000000E+00
  0.00000000E+00  0.00000000E+00  0.00000000E+00
  0.00000000E+00  0.00000000E+00  0.00000000E+00
  0.00000000E+00  0.00000000E+00  0.00000000E+00
  0.00000000E+00  0.00000000E+00  0.00000000E+00
  0.00000000E+00  0.00000000E+00  0.00000000E+00
  0.00000000E+00  0.00000000E+00  0.00000000E+00
  0.00000000E+00  0.00000000E+00  0.00000000E+00
  0.00000000E+00  0.00000000E+00  0.00000000E+00
  0.00000000E+00  0.00000000E+00  0.00000000E+00
  0.00000000E+00  0.00000000E+00  0.00000000E+00
  0.00000000E+00  0.00000000E+00  0.00000000E+00
  0.00000000E+00  0.00000000E+00  0.00000000E+00
  0.00000000E+00  0.00000000E+00  0.00000000E+00
  0.00000000E+00  0.00000000E+00  0.00000000E+00
  0.00000000E+00  0.00000000E+00  0.00000000E+00
  0.00000000E+00  0.00000000E+00  0.00000000E+00
  0.00000000E+00  0.00000000E+00  0.00000000E+00
  0.00000000E+00  0.00000000E+00  0.00000000E+00
  0.00000000E+00  0.00000000E+00  0.00000000E+00
  0.00000000E+00  0.00000000E+00  0.00000000E+00
  0.00000000E+00  0.00000000E+00  0.00000000E+00
  0.00000000E+00  0.00000000E+00  0.00000000E+00
  0.00000000E+00  0.00000000E+00  0.00000000E+00
  0.00000000E+00  0.00000000E+00  0.00000000E+00
  0.00000000E+00  0.00000000E+00  0.00000000E+00
  0.00000000E+00  0.00000000E+00  0.00000000E+00
  0.00000000E+00  0.00000000E+00  0.00000000E+00
  0.00000000E+00  0.00000000E+00  0.00000000E+00
  0.00000000E+00  0.00000000E+00  0.00000000E+00
  0.00000000E+00  0.00000000E+00  0.00000000E+00
  0.00000000E+00  0.00000000E+00  0.00000000E+00
  0.00000000E+00  0.00000000E+00  0.00000000E+00
  0.00000000E+00  0.00000000E+00  0.00000000E+00
  0.00000000E+00  0.00000000E+00  0.00000000E+00
  0.00000000E+00  0.00000000E+00  0.00000000E+00
