CoH_5	                                  
   1.00000000000000     
    18.8887149657880755   -0.0029229468994255    0.0154295702592177
     0.0005522875389553   29.2400706798330248    3.4797603945904307
     0.0046609128694124    0.7073667368515740    6.0814549165537315
   C    Co   H    N    O 
    80     4    32    24    16
Direct
  0.8738360928870534  0.9637168335475650  0.1261583374562960
  0.9375767238851722  0.9773144573492090  0.4118585047861743
  0.8735103294188775  0.8162404845269506  0.9271423882097451
  0.6261920058766535  0.4636068682042875  0.6259831610157462
  0.5627465403858238  0.3027219838707325  0.1397964382806407
  0.0626327487141651  0.8026789690857541  0.1399253934795439
  0.5621317314799086  0.4772890975037569  0.9114274854290585
  0.6263290365351324  0.3164092355285320  0.4256439969273913
  0.4379215326105523  0.4773371967431217  0.4123071211293592
  0.1260210307989738  0.8162892689472017  0.4263140667275778
  0.0619810872837547  0.9773294630327030  0.9116834245787686
  0.4372594083896573  0.3026431143210360  0.6405301335158455
  0.9371018559327453  0.8026466112292709  0.6405374208528443
  0.1257551773453258  0.9638484165438257  0.6252286693785578
  0.3735999106552939  0.3162741990745204  0.9268972543527809
  0.3740393808403510  0.4637936734524786  0.1267774408012343
  0.7997364219243792  0.0359415468639313  0.4548788761831730
  0.8518040680523313  0.0744448192172129  0.0791626064647559
  0.8506144319000342  0.7057287686647200  0.9742476913042992
  0.6482751778866245  0.5743753837601204  0.5795281395125045
  0.6492156810662664  0.2059463387876619  0.4734423425952770
  0.2007587581948798  0.7442716808872660  0.0974676895548612
  0.7001930218697510  0.5357347717459930  0.9547088942155000
  0.7009784268515418  0.2443590790503691  0.0970496279483157
  0.3001128505937842  0.5359841413581279  0.4560644891009744
  0.1488949125883323  0.7058025553376268  0.4735955734385513
  0.1481013328699845  0.0745167149978840  0.5791183983338541
  0.3507103546791299  0.2057204919577273  0.9739083876016466
  0.7989785936520590  0.7442690916653731  0.5984144903840942
  0.1997871731566860  0.0358853176156160  0.9546529435545352
  0.2990708502371149  0.2443160960361865  0.5981968185783018
  0.3520133441013513  0.5744785385212552  0.0800722566769636
  0.7609692810327431  0.0796970890206197  0.4546699117047268
  0.8134426651943585  0.1178491925069665  0.0890456719994361
  0.8122335047389910  0.6623445773107193  0.9643005654619401
  0.6866382416711758  0.6177628881833570  0.5896550729571501
  0.6876313916962715  0.1625580502825414  0.4637436001028803
  0.2398421122439132  0.7006110156026324  0.0982506758847705
  0.7389481886459137  0.5794873801470217  0.9547501854431459
  0.7400019434153080  0.2006813113244732  0.0978369854033332
  0.2612129451041554  0.5797106508368444  0.4557164522683408
  0.1875551388140337  0.6624859914118062  0.4642293103697881
  0.1864994171825316  0.1178874956619254  0.5893047686014086
  0.3121730409220689  0.1623822768762153  0.9640690060253547
  0.7599931645130411  0.7005831904379889  0.5989707155380160
  0.2386411547550793  0.0796032113833718  0.9546611295392822
  0.2600255685949833  0.2006568209399475  0.5986470880690860
  0.3135235766413871  0.6178447809769736  0.0898073125538730
  0.7166898838310587  0.0818351323388384  0.6335529712244607
  0.8209759458265822  0.1572916683545387  0.9147532273199914
  0.8196013015441039  0.6228571625591428  0.1383795382304456
  0.6791759557740065  0.6572552599079486  0.4157012001815019
  0.6802100751360811  0.1231305589214600  0.6382136298565300
  0.2841506627497168  0.6984871835420421  0.9194297556600759
  0.7831355612562518  0.5815667754112326  0.1335090916497776
  0.7844026530913624  0.1985639102866941  0.9192133496375661
  0.2168980266210738  0.5818274690266918  0.6345524005474914
  0.1802340992963920  0.6230764102039643  0.6388505100855824
  0.1791865944243582  0.1573708337220552  0.4152082787518978
  0.3194455634750000  0.1228916133206752  0.1381986294057072
  0.7157128517669520  0.6985238467673369  0.4204112016052264
  0.2828436754110086  0.0816475976964171  0.1334320777783802
  0.2157928215417613  0.1986141102167380  0.4199524482636861
  0.3208461122831849  0.6572475351372518  0.9151751115040696
  0.8821304458376602  0.9948382693570821  0.2658071498399366
  0.8815586633540917  0.7851963679970098  0.7869929903227231
  0.6178139991275273  0.4947396967298658  0.7655963684977962
  0.6183001782473525  0.2853336742493084  0.2857255687860132
  0.1180761117666478  0.7852396726675224  0.2862094628128773
  0.3824061708033284  0.4948840331881428  0.2665511041987685
  0.1174806968221702  0.9949022570987225  0.7653040409396752
  0.3816732411309687  0.2852078634171775  0.7868687438139830
  0.7690917241785229  0.1192360890247173  0.2740879867838046
  0.7680242042219732  0.6610025858700439  0.7793278099998275
  0.7308858330639083  0.6190891356799781  0.7745746520936549
  0.7319113240351598  0.1611549580050209  0.2785717482687957
  0.2319061833589586  0.6611112768224388  0.2791965515136923
  0.2692117294943657  0.6192286832515634  0.2749293883187747
  0.2306998250693297  0.1191952090862642  0.7743642748204280
  0.2679450749421477  0.1610782386227569  0.7790868410839096
  0.9735203307960276  0.8898680790087496  0.0263459258243870
  0.0260836265017588  0.8899347583975512  0.5261813316444872
  0.5263185291958408  0.3898992570526332  0.5261840558367581
  0.4735683167232594  0.3898856566574835  0.0264247183728585
  0.3538290286285033  0.1249223503627306  0.2784353876293437
  0.7883583427553944  0.5504758853230456  0.2696062288328989
  0.7896887192958317  0.2296040664435708  0.7828562060477964
  0.7114063077824611  0.0507884963578533  0.7699005464724564
  0.7104836823405378  0.7295963786585418  0.2842772118191021
  0.6447597896148451  0.6551545156057941  0.2756745380444698
  0.1457404842735954  0.6251931787887059  0.7790501631637810
  0.1448336484043793  0.1552974941943859  0.2749814625145319
  0.8539424608212656  0.6249173322458930  0.2786879592266160
  0.2106692467671394  0.2296826129919438  0.2837601111507198
  0.2116929362993218  0.5508104917716352  0.7711102509075332
  0.2892711875357818  0.7294801043157761  0.7827243350629658
  0.3552844647743569  0.6551079142943834  0.7748922559342759
  0.6458114358879428  0.1252617119841517  0.7785896407983870
  0.8554823235572186  0.1551632924433264  0.7746290485618914
  0.2879786493979353  0.0505631167096539  0.2695880336038456
  0.5392601524268841  0.4906677648775926  0.0465953881246364
  0.4599034677172398  0.2893031679990159  0.5048954695331531
  0.3388089078691010  0.4653614587569663  0.9851634683913701
  0.1610650480058098  0.8147776985987605  0.5683414578564694
  0.0392548909402350  0.9906096412953858  0.0473680177875337
  0.3384287564921920  0.3147651954635649  0.0689582400652142
  0.8386602130176755  0.9652568863358368  0.9844237825561066
  0.9597048972622844  0.7893296729636745  0.5047819637363844
  0.1609487649953678  0.9654389022190983  0.4831492627551199
  0.6615374982189479  0.4650814532920151  0.4843632300464904
  0.5401714646841214  0.2893767132688083  0.0042771667839219
  0.9603133425625856  0.9906487424956865  0.5471598447131498
  0.6614763598516760  0.3149258828321990  0.5674003423897389
  0.4607353462621404  0.4906540552533585  0.5475574178290401
  0.0401261737981216  0.7893599974578791  0.0042315189230706
  0.8383668841697300  0.8146962981979087  0.0693000883045087
  0.9216621278111461  0.9290970929743949  0.1885566794768891
  0.9608765090036044  0.9376332656893922  0.3624472414802540
  0.9215724236618072  0.8507456211163884  0.8646662260409457
  0.5781936000735897  0.4290492492170301  0.6882439497862123
  0.5391119106377005  0.3422889397212430  0.1895997389386750
  0.0389854277995880  0.8422481010166010  0.1896860646666738
  0.5387898004576783  0.4376293065918162  0.8620126734978939
  0.5782428851595185  0.3508736751147623  0.3635637322068632
  0.4611728506034893  0.4376678818986903  0.3626549543546389
  0.0779985023292795  0.8507883779889198  0.3639778433570484
  0.0386513107967090  0.9376827477838887  0.8621124866903145
  0.4608630212543119  0.3422192686692824  0.6901702854897209
  0.9607052767906410  0.8422197966874450  0.6902221025043715
  0.0778849651342526  0.9292202994079162  0.6877412452484535
  0.4216874901283632  0.3507681101018463  0.8644973563402019
  0.4218725996166697  0.4291701198123477  0.1888442252514437
  0.8428011205403081  0.0360848513404406  0.2651212363727211
  0.8419832972977659  0.7440446523967523  0.7879617808015880
  0.6572159609630717  0.5359507552534168  0.7650842255699644
  0.6578645484896697  0.2441834177339004  0.2867280806802412
  0.1576656287101770  0.7440966894734586  0.2871801145826183
  0.3430906358655008  0.5361273257134656  0.2661094339008230
  0.1568760455749327  0.0361122679573924  0.7648728689320237
  0.3420657994262157  0.2440672739754959  0.7877878784332850
  0.7950485923769577  0.0010236800693946  0.6094770228238673
  0.8895153012624988  0.0713359835317675  0.9196060132593118
  0.8880945538004781  0.7088682482376853  0.1339421252706430
  0.6106074154658643  0.5713376292962238  0.4201176847784538
  0.6116950999885020  0.2091339764014606  0.6333279422873019
  0.2051701738876446  0.7791361215641786  0.9424479713181881
  0.7047988043259110  0.5007617622766247  0.1089788542533938
  0.7054398226069765  0.2792295743741420  0.9421067193752890
  0.2955800599388638  0.5010978927994927  0.6108965163204871
  0.1111013426216374  0.7088932745319951  0.6330152174029067
  0.1105412261696515  0.0714673230084699  0.4194711767960726
  0.3883129946697679  0.2087900323941980  0.1334262859957178
  0.7945849632457112  0.7791809909359344  0.4437368194434939
  0.2042837180537447  0.0009276064346579  0.1090365349430655
  0.2947240156217248  0.2792310724517080  0.4435189678560221
  0.3897454866591517  0.5713910862524330  0.9205229473757512
 
  0.00000000E+00  0.00000000E+00  0.00000000E+00
  0.00000000E+00  0.00000000E+00  0.00000000E+00
  0.00000000E+00  0.00000000E+00  0.00000000E+00
  0.00000000E+00  0.00000000E+00  0.00000000E+00
  0.00000000E+00  0.00000000E+00  0.00000000E+00
  0.00000000E+00  0.00000000E+00  0.00000000E+00
  0.00000000E+00  0.00000000E+00  0.00000000E+00
  0.00000000E+00  0.00000000E+00  0.00000000E+00
  0.00000000E+00  0.00000000E+00  0.00000000E+00
  0.00000000E+00  0.00000000E+00  0.00000000E+00
  0.00000000E+00  0.00000000E+00  0.00000000E+00
  0.00000000E+00  0.00000000E+00  0.00000000E+00
  0.00000000E+00  0.00000000E+00  0.00000000E+00
  0.00000000E+00  0.00000000E+00  0.00000000E+00
  0.00000000E+00  0.00000000E+00  0.00000000E+00
  0.00000000E+00  0.00000000E+00  0.00000000E+00
  0.00000000E+00  0.00000000E+00  0.00000000E+00
  0.00000000E+00  0.00000000E+00  0.00000000E+00
  0.00000000E+00  0.00000000E+00  0.00000000E+00
  0.00000000E+00  0.00000000E+00  0.00000000E+00
  0.00000000E+00  0.00000000E+00  0.00000000E+00
  0.00000000E+00  0.00000000E+00  0.00000000E+00
  0.00000000E+00  0.00000000E+00  0.00000000E+00
  0.00000000E+00  0.00000000E+00  0.00000000E+00
  0.00000000E+00  0.00000000E+00  0.00000000E+00
  0.00000000E+00  0.00000000E+00  0.00000000E+00
  0.00000000E+00  0.00000000E+00  0.00000000E+00
  0.00000000E+00  0.00000000E+00  0.00000000E+00
  0.00000000E+00  0.00000000E+00  0.00000000E+00
  0.00000000E+00  0.00000000E+00  0.00000000E+00
  0.00000000E+00  0.00000000E+00  0.00000000E+00
  0.00000000E+00  0.00000000E+00  0.00000000E+00
  0.00000000E+00  0.00000000E+00  0.00000000E+00
  0.00000000E+00  0.00000000E+00  0.00000000E+00
  0.00000000E+00  0.00000000E+00  0.00000000E+00
  0.00000000E+00  0.00000000E+00  0.00000000E+00
  0.00000000E+00  0.00000000E+00  0.00000000E+00
  0.00000000E+00  0.00000000E+00  0.00000000E+00
  0.00000000E+00  0.00000000E+00  0.00000000E+00
  0.00000000E+00  0.00000000E+00  0.00000000E+00
  0.00000000E+00  0.00000000E+00  0.00000000E+00
  0.00000000E+00  0.00000000E+00  0.00000000E+00
  0.00000000E+00  0.00000000E+00  0.00000000E+00
  0.00000000E+00  0.00000000E+00  0.00000000E+00
  0.00000000E+00  0.00000000E+00  0.00000000E+00
  0.00000000E+00  0.00000000E+00  0.00000000E+00
  0.00000000E+00  0.00000000E+00  0.00000000E+00
  0.00000000E+00  0.00000000E+00  0.00000000E+00
  0.00000000E+00  0.00000000E+00  0.00000000E+00
  0.00000000E+00  0.00000000E+00  0.00000000E+00
  0.00000000E+00  0.00000000E+00  0.00000000E+00
  0.00000000E+00  0.00000000E+00  0.00000000E+00
  0.00000000E+00  0.00000000E+00  0.00000000E+00
  0.00000000E+00  0.00000000E+00  0.00000000E+00
  0.00000000E+00  0.00000000E+00  0.00000000E+00
  0.00000000E+00  0.00000000E+00  0.00000000E+00
  0.00000000E+00  0.00000000E+00  0.00000000E+00
  0.00000000E+00  0.00000000E+00  0.00000000E+00
  0.00000000E+00  0.00000000E+00  0.00000000E+00
  0.00000000E+00  0.00000000E+00  0.00000000E+00
  0.00000000E+00  0.00000000E+00  0.00000000E+00
  0.00000000E+00  0.00000000E+00  0.00000000E+00
  0.00000000E+00  0.00000000E+00  0.00000000E+00
  0.00000000E+00  0.00000000E+00  0.00000000E+00
  0.00000000E+00  0.00000000E+00  0.00000000E+00
  0.00000000E+00  0.00000000E+00  0.00000000E+00
  0.00000000E+00  0.00000000E+00  0.00000000E+00
  0.00000000E+00  0.00000000E+00  0.00000000E+00
  0.00000000E+00  0.00000000E+00  0.00000000E+00
  0.00000000E+00  0.00000000E+00  0.00000000E+00
  0.00000000E+00  0.00000000E+00  0.00000000E+00
  0.00000000E+00  0.00000000E+00  0.00000000E+00
  0.00000000E+00  0.00000000E+00  0.00000000E+00
  0.00000000E+00  0.00000000E+00  0.00000000E+00
  0.00000000E+00  0.00000000E+00  0.00000000E+00
  0.00000000E+00  0.00000000E+00  0.00000000E+00
  0.00000000E+00  0.00000000E+00  0.00000000E+00
  0.00000000E+00  0.00000000E+00  0.00000000E+00
  0.00000000E+00  0.00000000E+00  0.00000000E+00
  0.00000000E+00  0.00000000E+00  0.00000000E+00
  0.00000000E+00  0.00000000E+00  0.00000000E+00
  0.00000000E+00  0.00000000E+00  0.00000000E+00
  0.00000000E+00  0.00000000E+00  0.00000000E+00
  0.00000000E+00  0.00000000E+00  0.00000000E+00
  0.00000000E+00  0.00000000E+00  0.00000000E+00
  0.00000000E+00  0.00000000E+00  0.00000000E+00
  0.00000000E+00  0.00000000E+00  0.00000000E+00
  0.00000000E+00  0.00000000E+00  0.00000000E+00
  0.00000000E+00  0.00000000E+00  0.00000000E+00
  0.00000000E+00  0.00000000E+00  0.00000000E+00
  0.00000000E+00  0.00000000E+00  0.00000000E+00
  0.00000000E+00  0.00000000E+00  0.00000000E+00
  0.00000000E+00  0.00000000E+00  0.00000000E+00
  0.00000000E+00  0.00000000E+00  0.00000000E+00
  0.00000000E+00  0.00000000E+00  0.00000000E+00
  0.00000000E+00  0.00000000E+00  0.00000000E+00
  0.00000000E+00  0.00000000E+00  0.00000000E+00
  0.00000000E+00  0.00000000E+00  0.00000000E+00
  0.00000000E+00  0.00000000E+00  0.00000000E+00
  0.00000000E+00  0.00000000E+00  0.00000000E+00
  0.00000000E+00  0.00000000E+00  0.00000000E+00
  0.00000000E+00  0.00000000E+00  0.00000000E+00
  0.00000000E+00  0.00000000E+00  0.00000000E+00
  0.00000000E+00  0.00000000E+00  0.00000000E+00
  0.00000000E+00  0.00000000E+00  0.00000000E+00
  0.00000000E+00  0.00000000E+00  0.00000000E+00
  0.00000000E+00  0.00000000E+00  0.00000000E+00
  0.00000000E+00  0.00000000E+00  0.00000000E+00
  0.00000000E+00  0.00000000E+00  0.00000000E+00
  0.00000000E+00  0.00000000E+00  0.00000000E+00
  0.00000000E+00  0.00000000E+00  0.00000000E+00
  0.00000000E+00  0.00000000E+00  0.00000000E+00
  0.00000000E+00  0.00000000E+00  0.00000000E+00
  0.00000000E+00  0.00000000E+00  0.00000000E+00
  0.00000000E+00  0.00000000E+00  0.00000000E+00
  0.00000000E+00  0.00000000E+00  0.00000000E+00
  0.00000000E+00  0.00000000E+00  0.00000000E+00
  0.00000000E+00  0.00000000E+00  0.00000000E+00
  0.00000000E+00  0.00000000E+00  0.00000000E+00
  0.00000000E+00  0.00000000E+00  0.00000000E+00
  0.00000000E+00  0.00000000E+00  0.00000000E+00
  0.00000000E+00  0.00000000E+00  0.00000000E+00
  0.00000000E+00  0.00000000E+00  0.00000000E+00
  0.00000000E+00  0.00000000E+00  0.00000000E+00
  0.00000000E+00  0.00000000E+00  0.00000000E+00
  0.00000000E+00  0.00000000E+00  0.00000000E+00
  0.00000000E+00  0.00000000E+00  0.00000000E+00
  0.00000000E+00  0.00000000E+00  0.00000000E+00
  0.00000000E+00  0.00000000E+00  0.00000000E+00
  0.00000000E+00  0.00000000E+00  0.00000000E+00
  0.00000000E+00  0.00000000E+00  0.00000000E+00
  0.00000000E+00  0.00000000E+00  0.00000000E+00
  0.00000000E+00  0.00000000E+00  0.00000000E+00
  0.00000000E+00  0.00000000E+00  0.00000000E+00
  0.00000000E+00  0.00000000E+00  0.00000000E+00
  0.00000000E+00  0.00000000E+00  0.00000000E+00
  0.00000000E+00  0.00000000E+00  0.00000000E+00
  0.00000000E+00  0.00000000E+00  0.00000000E+00
  0.00000000E+00  0.00000000E+00  0.00000000E+00
  0.00000000E+00  0.00000000E+00  0.00000000E+00
  0.00000000E+00  0.00000000E+00  0.00000000E+00
  0.00000000E+00  0.00000000E+00  0.00000000E+00
  0.00000000E+00  0.00000000E+00  0.00000000E+00
  0.00000000E+00  0.00000000E+00  0.00000000E+00
  0.00000000E+00  0.00000000E+00  0.00000000E+00
  0.00000000E+00  0.00000000E+00  0.00000000E+00
  0.00000000E+00  0.00000000E+00  0.00000000E+00
  0.00000000E+00  0.00000000E+00  0.00000000E+00
  0.00000000E+00  0.00000000E+00  0.00000000E+00
  0.00000000E+00  0.00000000E+00  0.00000000E+00
  0.00000000E+00  0.00000000E+00  0.00000000E+00
  0.00000000E+00  0.00000000E+00  0.00000000E+00
  0.00000000E+00  0.00000000E+00  0.00000000E+00
  0.00000000E+00  0.00000000E+00  0.00000000E+00
  0.00000000E+00  0.00000000E+00  0.00000000E+00
  0.00000000E+00  0.00000000E+00  0.00000000E+00
