Zn_H                                    
   1.00000000000000     
    10.9302483443861789   -0.0010616306934959   -0.0024267364870465
     0.0014766816118358   32.6190013677025661   -2.2662543568065119
    -0.0001407209073978   -0.4324421037734799    6.8154083416677462
   C    Zn   H    N    O 
    80     4    32    24    16
Direct
  0.9091298835830202  0.9576090174537129  0.1364490524280768
  0.8181593238859506  0.9519271242287957  0.4231766465711146
  0.9097502799441060  0.7981730566154184  0.9087714792868269
  0.5905693396397425  0.4575983316337755  0.6359469329550222
  0.6811385586992742  0.3037660112709304  0.1216837031796487
  0.1796567089246537  0.8037697329781679  0.1221277432042527
  0.6816432711266316  0.4519206601121866  0.9226695694867857
  0.5898791837624771  0.2981319587427791  0.4082139442774704
  0.3204853263522907  0.4521231172260372  0.4226835594770506
  0.0886171724716576  0.7981598899708118  0.4088490938008391
  0.1792827966564872  0.9521568039595749  0.9232506861614951
  0.3200192637523358  0.3037647547531108  0.6218165735331169
  0.8186501414112755  0.8037738771620297  0.6220169384716741
  0.0884239796551185  0.9576728264114038  0.6361916602016038
  0.4112520480229520  0.2981757358358479  0.9084799337471026
  0.4113213944710878  0.4576726567508587  0.1357218819107402
  0.7325250738775537  0.0321260642677785  0.1323223135865916
  0.8570360687407970  0.0499901377318466  0.4405504077870930
  0.8580731126735799  0.7057466188193402  0.6047919801069739
  0.6427760836587595  0.5499618678606524  0.9402839945746138
  0.6415998456657945  0.2056999251294229  0.1044741500892670
  0.2652746989096642  0.7236420045624143  0.4134434274001890
  0.7671957376262242  0.5321505334230068  0.6320048464663159
  0.7662140835062843  0.2235512506050341  0.4126433142964956
  0.2347889951968867  0.5322165429150161  0.1312996770246713
  0.1408190395731452  0.7056791241087623  0.1051945932315803
  0.1408593875321884  0.0502009343069716  0.9401683856995007
  0.3589076686427077  0.2056716268499414  0.6051328153378392
  0.7334776609763267  0.7235495557133191  0.9129565749071915
  0.2649803265651727  0.0322155213456696  0.6317062154572355
  0.2345289736848244  0.2236717448042853  0.9133158372328154
  0.3589069630125934  0.5501686679043942  0.4398569486653656
  0.7095653676457800  0.0767788548154087  0.1289021778287420
  0.8315056610141198  0.0942956187675534  0.4317771322800539
  0.8326643914134593  0.6614288204300465  0.6135418955992051
  0.6682810269848218  0.5942734117815860  0.9316566359133489
  0.6670448380173895  0.1613858491341986  0.1133252111838914
  0.2887095349676088  0.6790109637056645  0.4167391523409805
  0.7901646033571126  0.5768066642619871  0.6287873486270144
  0.7890087746835661  0.1789004260477114  0.4162143357420192
  0.2111057674378074  0.5768375166799018  0.1282741741371467
  0.1670333512817237  0.6613945854333139  0.1136538227262847
  0.1671405742544891  0.0944781876708092  0.9316996892363534
  0.3327358243583873  0.1613916866601528  0.6137477836561018
  0.7107160354256195  0.6788893297404996  0.9163761753301074
  0.2886852796508919  0.0768347178324191  0.6285926147252709
  0.2111385858101826  0.1790384558980449  0.9167767319928686
  0.3326756473483243  0.5944489866949354  0.4314644905352623
  0.6395928704404241  0.0894604430811512  0.9778621467025346
  0.8801525660502492  0.1240575091092353  0.5749998718850620
  0.8814167006649427  0.6316770915177230  0.4704038031453024
  0.6196463538841925  0.6240172277718017  0.0749470948403825
  0.6183150232956720  0.1316126101757504  0.9702132679598918
  0.3587176533393972  0.6663790757678996  0.5678617591382391
  0.8601353757124457  0.5895189125734817  0.4778780475425819
  0.8588533739539628  0.1662111652720455  0.5673822194569382
  0.1409187355121162  0.5894593841662470  0.9773221707151762
  0.1188282364194393  0.6315866089070497  0.9701968733128510
  0.1191356093739770  0.1242966339292764  0.0752522249618579
  0.3809027431183836  0.1315674733062693  0.4703678139471137
  0.6408991734922651  0.6661751012561510  0.0674494453319170
  0.3588373588847773  0.0894425655124067  0.4776405179894354
  0.1411620579334922  0.1664217602207785  0.0679281520410910
  0.3807231370473474  0.6242510549793749  0.5750952687497062
  0.8376771549195112  0.9792134649177058  0.2850679011983885
  0.8383294705946582  0.7765146840788404  0.7601866144627536
  0.6620781502952013  0.4792060213681211  0.7845649473510079
  0.6613333689378180  0.2764853757916796  0.2597135514628235
  0.1600227452290781  0.7765047955674262  0.2603269290629129
  0.3400393011895915  0.4793602201938540  0.2843239075561712
  0.1596966297900337  0.9793807082059871  0.7848345165927384
  0.3397391886598697  0.2765126208538646  0.7600432675192721
  0.7599042752644820  0.1064625395487155  0.2766130242436518
  0.7610824443926916  0.6492343799540805  0.7686186500085554
  0.7398582201869388  0.6064675629519201  0.7765922895804565
  0.7386595951725710  0.1492231439581886  0.2684994101321934
  0.2388778240217491  0.6492911071057890  0.2687006518189037
  0.2608630204109943  0.6065545999238111  0.2763864886324541
  0.2389535458468401  0.1065662806414593  0.7766302197928354
  0.2609411214413200  0.1493023498434880  0.7688332341174231
  0.0397148938105687  0.8779325729999456  0.0227818506092348
  0.9584370926232637  0.8778635913396613  0.5226506012237166
  0.4600651417534962  0.3778749384999855  0.5221879691140714
  0.5413498025611716  0.3778785540507030  0.0221342169404721
  0.4358278799425790  0.1416395273729592  0.3523900478697826
  0.8974319564020945  0.5660077871260825  0.3656211430982665
  0.8961106320681367  0.1897316694336766  0.6796336148890845
  0.6023060884085112  0.0659313625423223  0.8656603622838404
  0.6036685325914064  0.6896812158903387  0.1797574888108002
  0.5649778888790564  0.6138405991413833  0.1929625024847894
  0.0638384903763765  0.6416723645848350  0.8522759485623439
  0.0643178055336193  0.1142154484166582  0.1933415806901237
  0.9361866775245815  0.6418405614673404  0.3524742181795020
  0.1043585282235355  0.1899769609548443  0.1804334096408624
  0.1040707541361670  0.5659017521737155  0.8648407569880803
  0.3955351803685119  0.6899275296835654  0.6804407199178897
  0.4355266816683638  0.6141540469508513  0.6931895596854218
  0.5635473877810639  0.1417547081628072  0.8521777293752990
  0.9348805582593869  0.1139031523337408  0.6930453681018705
  0.3956739442751953  0.0658765436478390  0.3652307337678948
  0.7297843892864080  0.4564975851631701  0.0629960953022177
  0.2718349508938829  0.2991583708887333  0.4815337990626389
  0.4468453007367685  0.4679539033736759  0.0023773954022417
  0.0530111356124081  0.7878425253654484  0.5420297500710944
  0.2272886221124111  0.9568292455624317  0.0636987125125970
  0.4469251359382653  0.2878641478225887  0.0416563513114312
  0.9446324431615594  0.9679745136960705  0.0032870568413941
  0.7705669928153824  0.7991600509500785  0.4816475829326663
  0.0528815378637759  0.9679412132828134  0.5028103158103079
  0.5549965494885427  0.4679628756341074  0.5028093288616162
  0.7292707294853074  0.2991627153272489  0.9814025339382866
  0.7700510041804662  0.9564983588978251  0.5634903125432587
  0.5541336324379600  0.2877852977420261  0.5412536700977881
  0.2724926176323166  0.4567855308268207  0.5630985612714952
  0.2277479708606833  0.7991535738198294  0.9817970883002900
  0.9454060354445701  0.7878427072570986  0.0419247658277158
  0.9323802901547822  0.9198364276070379  0.1839553077247871
  0.8758557673014877  0.9160107171985956  0.3599397346638753
  0.9327978482048707  0.8359498206332532  0.8612139557601992
  0.5673561159927445  0.4198218701786089  0.6834437006473379
  0.6236299245412766  0.3397193556638030  0.1848773373853092
  0.1220824992425236  0.8397173044736874  0.1852623092013062
  0.6239435151085218  0.4160013709197159  0.8594273668204622
  0.5669264342471294  0.3359208004344083  0.3607196533483616
  0.3779723675461710  0.4161610541734433  0.3595963335243439
  0.0655265112898604  0.8359329634144004  0.3612530135897387
  0.1218048328089125  0.9161877396021865  0.8601759276784904
  0.3776546410540860  0.3397107993756663  0.6848285670051837
  0.8761757300482884  0.8397265724677681  0.6852438012588493
  0.0653595647159690  0.9199093351324521  0.6839651899212100
  0.4343207292775517  0.3359405753475926  0.8607741867566503
  0.4344038076748262  0.4199046293029980  0.1834361840807759
  0.8030688197477645  0.0214000035662281  0.2921152279390000
  0.8039668829635715  0.7343085879990170  0.7531959094733480
  0.6966701360185894  0.5213968387377648  0.7917071741864561
  0.6957036293042620  0.2342821204008914  0.2528047605539854
  0.1946597495867124  0.7343211299258172  0.2535699721649110
  0.3053471729464547  0.5215375840424983  0.2911702536033545
  0.1944071797501863  0.0215548172858391  0.7915682395772876
  0.3050810987340782  0.2343309719029492  0.7533908336004842
  0.6935969004861278  0.0056058013156601  0.0034520257877233
  0.9223055473525505  0.0385393762175923  0.5695300653718860
  0.9233087729448002  0.7172345124974058  0.4758923176415735
  0.5775813311894709  0.5384879655214760  0.0692672334577793
  0.5763297261055698  0.2171642670527163  0.9755072333160797
  0.3039510889121502  0.7501902806628280  0.5424098662682013
  0.8061226927597929  0.5056441629137041  0.5031001466123541
  0.8052889751930579  0.2500742779819447  0.5413792708330760
  0.1962921433975993  0.5056767913055609  0.0021389936163416
  0.0752366886575615  0.7170606453951081  0.9764050337853618
  0.0754430177411578  0.0388175624966749  0.0691091704692681
  0.4244597585694194  0.2170385846112382  0.4763198384531648
  0.6944021710191919  0.7500490328045188  0.0417634090567773
  0.3034550648129937  0.0056661442432429  0.5026063363728781
  0.1958558599923848  0.2502335304413634  0.0421749321147047
  0.4243064079263021  0.5387714137215838  0.5688241703881047
 
  0.00000000E+00  0.00000000E+00  0.00000000E+00
  0.00000000E+00  0.00000000E+00  0.00000000E+00
  0.00000000E+00  0.00000000E+00  0.00000000E+00
  0.00000000E+00  0.00000000E+00  0.00000000E+00
  0.00000000E+00  0.00000000E+00  0.00000000E+00
  0.00000000E+00  0.00000000E+00  0.00000000E+00
  0.00000000E+00  0.00000000E+00  0.00000000E+00
  0.00000000E+00  0.00000000E+00  0.00000000E+00
  0.00000000E+00  0.00000000E+00  0.00000000E+00
  0.00000000E+00  0.00000000E+00  0.00000000E+00
  0.00000000E+00  0.00000000E+00  0.00000000E+00
  0.00000000E+00  0.00000000E+00  0.00000000E+00
  0.00000000E+00  0.00000000E+00  0.00000000E+00
  0.00000000E+00  0.00000000E+00  0.00000000E+00
  0.00000000E+00  0.00000000E+00  0.00000000E+00
  0.00000000E+00  0.00000000E+00  0.00000000E+00
  0.00000000E+00  0.00000000E+00  0.00000000E+00
  0.00000000E+00  0.00000000E+00  0.00000000E+00
  0.00000000E+00  0.00000000E+00  0.00000000E+00
  0.00000000E+00  0.00000000E+00  0.00000000E+00
  0.00000000E+00  0.00000000E+00  0.00000000E+00
  0.00000000E+00  0.00000000E+00  0.00000000E+00
  0.00000000E+00  0.00000000E+00  0.00000000E+00
  0.00000000E+00  0.00000000E+00  0.00000000E+00
  0.00000000E+00  0.00000000E+00  0.00000000E+00
  0.00000000E+00  0.00000000E+00  0.00000000E+00
  0.00000000E+00  0.00000000E+00  0.00000000E+00
  0.00000000E+00  0.00000000E+00  0.00000000E+00
  0.00000000E+00  0.00000000E+00  0.00000000E+00
  0.00000000E+00  0.00000000E+00  0.00000000E+00
  0.00000000E+00  0.00000000E+00  0.00000000E+00
  0.00000000E+00  0.00000000E+00  0.00000000E+00
  0.00000000E+00  0.00000000E+00  0.00000000E+00
  0.00000000E+00  0.00000000E+00  0.00000000E+00
  0.00000000E+00  0.00000000E+00  0.00000000E+00
  0.00000000E+00  0.00000000E+00  0.00000000E+00
  0.00000000E+00  0.00000000E+00  0.00000000E+00
  0.00000000E+00  0.00000000E+00  0.00000000E+00
  0.00000000E+00  0.00000000E+00  0.00000000E+00
  0.00000000E+00  0.00000000E+00  0.00000000E+00
  0.00000000E+00  0.00000000E+00  0.00000000E+00
  0.00000000E+00  0.00000000E+00  0.00000000E+00
  0.00000000E+00  0.00000000E+00  0.00000000E+00
  0.00000000E+00  0.00000000E+00  0.00000000E+00
  0.00000000E+00  0.00000000E+00  0.00000000E+00
  0.00000000E+00  0.00000000E+00  0.00000000E+00
  0.00000000E+00  0.00000000E+00  0.00000000E+00
  0.00000000E+00  0.00000000E+00  0.00000000E+00
  0.00000000E+00  0.00000000E+00  0.00000000E+00
  0.00000000E+00  0.00000000E+00  0.00000000E+00
  0.00000000E+00  0.00000000E+00  0.00000000E+00
  0.00000000E+00  0.00000000E+00  0.00000000E+00
  0.00000000E+00  0.00000000E+00  0.00000000E+00
  0.00000000E+00  0.00000000E+00  0.00000000E+00
  0.00000000E+00  0.00000000E+00  0.00000000E+00
  0.00000000E+00  0.00000000E+00  0.00000000E+00
  0.00000000E+00  0.00000000E+00  0.00000000E+00
  0.00000000E+00  0.00000000E+00  0.00000000E+00
  0.00000000E+00  0.00000000E+00  0.00000000E+00
  0.00000000E+00  0.00000000E+00  0.00000000E+00
  0.00000000E+00  0.00000000E+00  0.00000000E+00
  0.00000000E+00  0.00000000E+00  0.00000000E+00
  0.00000000E+00  0.00000000E+00  0.00000000E+00
  0.00000000E+00  0.00000000E+00  0.00000000E+00
  0.00000000E+00  0.00000000E+00  0.00000000E+00
  0.00000000E+00  0.00000000E+00  0.00000000E+00
  0.00000000E+00  0.00000000E+00  0.00000000E+00
  0.00000000E+00  0.00000000E+00  0.00000000E+00
  0.00000000E+00  0.00000000E+00  0.00000000E+00
  0.00000000E+00  0.00000000E+00  0.00000000E+00
  0.00000000E+00  0.00000000E+00  0.00000000E+00
  0.00000000E+00  0.00000000E+00  0.00000000E+00
  0.00000000E+00  0.00000000E+00  0.00000000E+00
  0.00000000E+00  0.00000000E+00  0.00000000E+00
  0.00000000E+00  0.00000000E+00  0.00000000E+00
  0.00000000E+00  0.00000000E+00  0.00000000E+00
  0.00000000E+00  0.00000000E+00  0.00000000E+00
  0.00000000E+00  0.00000000E+00  0.00000000E+00
  0.00000000E+00  0.00000000E+00  0.00000000E+00
  0.00000000E+00  0.00000000E+00  0.00000000E+00
  0.00000000E+00  0.00000000E+00  0.00000000E+00
  0.00000000E+00  0.00000000E+00  0.00000000E+00
  0.00000000E+00  0.00000000E+00  0.00000000E+00
  0.00000000E+00  0.00000000E+00  0.00000000E+00
  0.00000000E+00  0.00000000E+00  0.00000000E+00
  0.00000000E+00  0.00000000E+00  0.00000000E+00
  0.00000000E+00  0.00000000E+00  0.00000000E+00
  0.00000000E+00  0.00000000E+00  0.00000000E+00
  0.00000000E+00  0.00000000E+00  0.00000000E+00
  0.00000000E+00  0.00000000E+00  0.00000000E+00
  0.00000000E+00  0.00000000E+00  0.00000000E+00
  0.00000000E+00  0.00000000E+00  0.00000000E+00
  0.00000000E+00  0.00000000E+00  0.00000000E+00
  0.00000000E+00  0.00000000E+00  0.00000000E+00
  0.00000000E+00  0.00000000E+00  0.00000000E+00
  0.00000000E+00  0.00000000E+00  0.00000000E+00
  0.00000000E+00  0.00000000E+00  0.00000000E+00
  0.00000000E+00  0.00000000E+00  0.00000000E+00
  0.00000000E+00  0.00000000E+00  0.00000000E+00
  0.00000000E+00  0.00000000E+00  0.00000000E+00
  0.00000000E+00  0.00000000E+00  0.00000000E+00
  0.00000000E+00  0.00000000E+00  0.00000000E+00
  0.00000000E+00  0.00000000E+00  0.00000000E+00
  0.00000000E+00  0.00000000E+00  0.00000000E+00
  0.00000000E+00  0.00000000E+00  0.00000000E+00
  0.00000000E+00  0.00000000E+00  0.00000000E+00
  0.00000000E+00  0.00000000E+00  0.00000000E+00
  0.00000000E+00  0.00000000E+00  0.00000000E+00
  0.00000000E+00  0.00000000E+00  0.00000000E+00
  0.00000000E+00  0.00000000E+00  0.00000000E+00
  0.00000000E+00  0.00000000E+00  0.00000000E+00
  0.00000000E+00  0.00000000E+00  0.00000000E+00
  0.00000000E+00  0.00000000E+00  0.00000000E+00
  0.00000000E+00  0.00000000E+00  0.00000000E+00
  0.00000000E+00  0.00000000E+00  0.00000000E+00
  0.00000000E+00  0.00000000E+00  0.00000000E+00
  0.00000000E+00  0.00000000E+00  0.00000000E+00
  0.00000000E+00  0.00000000E+00  0.00000000E+00
  0.00000000E+00  0.00000000E+00  0.00000000E+00
  0.00000000E+00  0.00000000E+00  0.00000000E+00
  0.00000000E+00  0.00000000E+00  0.00000000E+00
  0.00000000E+00  0.00000000E+00  0.00000000E+00
  0.00000000E+00  0.00000000E+00  0.00000000E+00
  0.00000000E+00  0.00000000E+00  0.00000000E+00
  0.00000000E+00  0.00000000E+00  0.00000000E+00
  0.00000000E+00  0.00000000E+00  0.00000000E+00
  0.00000000E+00  0.00000000E+00  0.00000000E+00
  0.00000000E+00  0.00000000E+00  0.00000000E+00
  0.00000000E+00  0.00000000E+00  0.00000000E+00
  0.00000000E+00  0.00000000E+00  0.00000000E+00
  0.00000000E+00  0.00000000E+00  0.00000000E+00
  0.00000000E+00  0.00000000E+00  0.00000000E+00
  0.00000000E+00  0.00000000E+00  0.00000000E+00
  0.00000000E+00  0.00000000E+00  0.00000000E+00
  0.00000000E+00  0.00000000E+00  0.00000000E+00
  0.00000000E+00  0.00000000E+00  0.00000000E+00
  0.00000000E+00  0.00000000E+00  0.00000000E+00
  0.00000000E+00  0.00000000E+00  0.00000000E+00
  0.00000000E+00  0.00000000E+00  0.00000000E+00
  0.00000000E+00  0.00000000E+00  0.00000000E+00
  0.00000000E+00  0.00000000E+00  0.00000000E+00
  0.00000000E+00  0.00000000E+00  0.00000000E+00
  0.00000000E+00  0.00000000E+00  0.00000000E+00
  0.00000000E+00  0.00000000E+00  0.00000000E+00
  0.00000000E+00  0.00000000E+00  0.00000000E+00
  0.00000000E+00  0.00000000E+00  0.00000000E+00
  0.00000000E+00  0.00000000E+00  0.00000000E+00
  0.00000000E+00  0.00000000E+00  0.00000000E+00
  0.00000000E+00  0.00000000E+00  0.00000000E+00
  0.00000000E+00  0.00000000E+00  0.00000000E+00
  0.00000000E+00  0.00000000E+00  0.00000000E+00
  0.00000000E+00  0.00000000E+00  0.00000000E+00
  0.00000000E+00  0.00000000E+00  0.00000000E+00
  0.00000000E+00  0.00000000E+00  0.00000000E+00
  0.00000000E+00  0.00000000E+00  0.00000000E+00
  0.00000000E+00  0.00000000E+00  0.00000000E+00
