CoH_5	                                  
   1.00000000000000     
    15.4547640585750159    0.0002404817974772   -0.0023966076880797
     0.0023229150983830   31.1264300235721230    2.5221308651758796
    -0.0010669697976489    0.5357605005414595    6.1587813566293077
   C    Co   H    N    O 
    80     4    32    24    16
Direct
  0.8554427033873750  0.9631605446422498  0.1344451256160895
  0.9337562636543666  0.9738028445083060  0.4249035425106200
  0.8562989620612527  0.8164872837698027  0.9212973864725953
  0.6441787582765741  0.4633665183398108  0.6313577471053406
  0.5654109970185459  0.3061469615423817  0.1281827516097920
  0.0662571104176237  0.8062823160908366  0.1304007673657352
  0.5659685341444955  0.4739082498261311  0.9220598631567896
  0.6435837484893909  0.3165716168570682  0.4192675818661797
  0.4346127832187037  0.4740541010214585  0.4217174101342920
  0.1444342923672863  0.8168838218827617  0.4211787903833155
  0.0652189408209196  0.9740110909879505  0.9245015417623534
  0.4338650026620456  0.3062692797206381  0.6280781934786717
  0.9346228671073149  0.8060812665892243  0.6305493663156270
  0.1437072391608325  0.9635090444083332  0.6341984818542556
  0.3556652049893927  0.3168963500983324  0.9186454266181698
  0.3562712689958403  0.4636676430990363  0.1308527801591524
  0.7813555683489000  0.0404657640961403  0.4534287115141638
  0.8578730115655091  0.0676825951219371  0.0980140504263076
  0.8588988622734917  0.7119326172180820  0.9569103232527567
  0.6417066782925858  0.5679590091433013  0.5960755948915946
  0.6406640689252043  0.2120274638371171  0.4554167163944811
  0.2185617852619686  0.7397560923894062  0.1012257778228332
  0.7180680672244009  0.5405056455389783  0.9515967545877402
  0.7170980691922324  0.2392398505765101  0.0998080172833014
  0.2829047954584993  0.5408450929622006  0.4513783832344487
  0.1423580284798049  0.7123241594051848  0.4569266306759801
  0.1405604646750049  0.0680899281896785  0.5979899229798704
  0.3580784989967469  0.2123456137321824  0.9555458943040094
  0.7827689572733121  0.7393443944523597  0.6009906733839401
  0.2170630452990494  0.0408531885509476  0.9536137127224791
  0.2817668882441211  0.2395658785273866  0.5996037537372843
  0.3592878298520432  0.5682868785135113  0.0959914109283346
  0.7453686662794539  0.0846150281998561  0.4493385454169498
  0.8214305329917906  0.1114598938288154  0.1026228216186311
  0.8226304762607768  0.6681559926948921  0.9511357241179681
  0.6781732580092097  0.6116960659828408  0.6016252288767774
  0.6768264908270396  0.1682074032791405  0.4503265306083506
  0.2544680086725393  0.6956160326933443  0.1043266621100045
  0.7540399825241906  0.5846226518906263  0.9485178498866489
  0.7528909591181474  0.1950615636946083  0.1035628277132119
  0.2471132323102978  0.5849991537093757  0.4485210224227174
  0.1786912490057233  0.6685612016217561  0.4512545550227713
  0.1769700702737111  0.1118692993354315  0.6028129158414330
  0.3216310045032102  0.1685755410204735  0.9507634212257798
  0.7468720191391540  0.6952121740963548  0.6040649241351943
  0.2529509852877752  0.0850089251279158  0.9498058134149190
  0.2457247137740808  0.1954322017757093  0.6036524639064638
  0.3229641218547599  0.6120545650688314  0.1017090825622589
  0.6908502893471749  0.0924803593035080  0.6171278636173056
  0.8416105620920149  0.1455459400567634  0.9354037770562726
  0.8426859310989698  0.6339809992933709  0.1180442876576251
  0.6581100896141763  0.6458741318280019  0.4347565743457267
  0.6566045481827416  0.1341180558841870  0.6174735666759972
  0.3088455221780464  0.6878512912769565  0.9360583292062117
  0.8084246614554189  0.5923749996442353  0.1168869202995850
  0.8073572790755037  0.1871838576399227  0.9356844045444248
  0.1927651122176499  0.5927656276665587  0.6168536712200208
  0.1585968598323007  0.6343891361675418  0.6180905866000543
  0.1568255323333574  0.1459583148935053  0.4355514200396016
  0.3417368233417193  0.1344939534420959  0.1180997346541375
  0.6924525023814496  0.6874649693806774  0.4357718712920473
  0.3074373961385177  0.0928705688618976  0.1177583218479441
  0.1911960539894082  0.1875720560183751  0.4357886076733095
  0.3430813526196346  0.6462374643066795  0.9349461074844143
  0.8710710775770139  0.9928040523849191  0.2765623048212120
  0.8722146720801760  0.7868981655208671  0.7790836170988058
  0.6284848461115331  0.4929891730625116  0.7735632586197738
  0.6277418075995485  0.2869643915578237  0.2770709219590799
  0.1288497981956738  0.7872591197431191  0.2789506063090741
  0.3721997032562854  0.4932535283066173  0.2731151980733131
  0.1277189715280826  0.9931473653997358  0.7761018213239694
  0.3713730518028768  0.2872258540863726  0.7767237733968813
  0.7664013740208802  0.1186770190796196  0.2761024714449647
  0.7677896335856715  0.6610518352492107  0.7769936333406520
  0.7331363932254433  0.6187791443169814  0.7755773095793828
  0.7318045053451243  0.1609874911102480  0.2767335662648449
  0.2335147245281917  0.6614526733907695  0.2771680517167212
  0.2680771330982523  0.6191607922601747  0.2756853987133425
  0.2319781910127858  0.1190770210348688  0.7764544258331654
  0.2666710240467012  0.1613682695833134  0.7770473477193320
  0.9679573103950361  0.8899850907533207  0.0276929933287704
  0.0319159756570713  0.8900746871180587  0.5276984432336889
  0.5318118963290388  0.3900601577877438  0.5250463531290848
  0.4680354314327388  0.3901281000074945  0.0247925652111505
  0.3842422893203192  0.1410422850552138  0.2494785783716225
  0.8234029851882809  0.5654157468493111  0.2475482947896452
  0.8224414022447490  0.2140752593108957  0.8047854522465698
  0.6757954566679558  0.0655863456430410  0.7480300466629402
  0.6774812217389510  0.7144206380856915  0.3050911978534856
  0.6156336253444366  0.6394239105251671  0.3031128017197418
  0.1162112340596053  0.6408641278093086  0.7498003951560577
  0.1142890510149783  0.1394249344159419  0.3042049227186538
  0.8850836092864895  0.6404391872049189  0.2498278700182013
  0.1761706223534532  0.2144595943591625  0.3047712695261282
  0.1777161188460923  0.5658020572472182  0.7473993197887339
  0.3238693999759406  0.7148101028268599  0.8054653114273762
  0.3855064160976767  0.6397750564150115  0.8032937897597989
  0.6141214269291879  0.1406747026855300  0.7488274356934284
  0.8841296425072187  0.1389938962729644  0.8041131620314133
  0.3225057823620716  0.0659748581521811  0.2486914298994947
  0.5361955169393298  0.4863184606427851  0.0579230774328394
  0.4636138927951450  0.2938254772553108  0.4922745289554200
  0.3148287880204990  0.4665833044713494  0.9871434916565960
  0.1858801791697715  0.8140806416371831  0.5648447272135613
  0.0352587571200331  0.9864240632288741  0.0601253912898869
  0.3142255245841312  0.3141094000714091  0.0622373300508343
  0.8139624347733871  0.9659429155358126  0.9908528174746110
  0.9644768562191572  0.7937318269723548  0.4946011569717541
  0.1851954126760234  0.9663698755830978  0.4906719489659253
  0.6856076116417427  0.4661951262723392  0.4877210189084238
  0.5355954987089859  0.2937631994424308  0.9922544394007105
  0.9635756773679915  0.9862610477403493  0.5606117391312466
  0.6849243751598593  0.3136749125407050  0.5631513323492783
  0.4644733637608738  0.4864170429265187  0.5576474641359681
  0.0365530438647994  0.7938559984346014  0.9944466123472253
  0.8148873743602181  0.8135803287002901  0.0649900081140231
  0.9061109717269602  0.9279943892849332  0.1970070783086015
  0.9542836881539074  0.9347561438772090  0.3742713137866929
  0.9065643673485440  0.8517883310090539  0.8586333745301289
  0.5936856204360623  0.4281449103645656  0.6940273683550160
  0.5452505192542816  0.3452560775696725  0.1785930261402910
  0.0457047984018075  0.8453263206726618  0.1810610607014382
  0.5455752699999366  0.4348468029336132  0.8714219973214341
  0.5933528283742646  0.3518813904328084  0.3562203866896922
  0.4547232496113907  0.4349566167134284  0.3711172191044980
  0.0938007760976092  0.8520602448053722  0.3585065023576561
  0.0451188345255531  0.9348936226546698  0.8740965380907042
  0.4542481107941683  0.3453595250523662  0.6784007068595841
  0.9547584401253246  0.8451739866561496  0.6812113588381052
  0.0934035627220950  0.9282226849462702  0.6969148008951578
  0.4061436432186483  0.3521082118774785  0.8557239399213756
  0.4065377385714584  0.4283533645364628  0.1935952681995445
  0.8337957643815272  0.0345717568868480  0.2728698282428113
  0.8351159571545423  0.7451139250896901  0.7820176439620852
  0.6657327124683547  0.5347416658044040  0.7705278639485229
  0.6647191473778662  0.2451358648082831  0.2805150866057673
  0.1661942072700739  0.7455165892967344  0.2821710280614340
  0.3351676854346906  0.5350578183697010  0.2702678693041918
  0.1647281226786532  0.0349628099211188  0.7727440517856650
  0.3341566540956649  0.2454492432156883  0.7804042698460663
  0.7667169773475919  0.0102953639427241  0.6034763503522598
  0.9063719073074026  0.0600762017025289  0.9516023254684072
  0.9069349862002554  0.7194834259637730  0.1044291838698470
  0.5932812867347721  0.5604724374411347  0.4491911901969630
  0.5924998307027849  0.2196654412663079  0.6024307090173053
  0.2331939325622585  0.7700218960288439  0.9516668857002486
  0.7326441027013431  0.5102389816538988  0.1012423171321757
  0.7318981912736788  0.2694395809807517  0.9500217701030635
  0.2682217361943984  0.5105700794321066  0.6008768946998728
  0.0941812089873508  0.7198462801969825  0.6041567533101428
  0.0921011395220859  0.0604952336365869  0.4514004313401898
  0.4063939322729908  0.2199422813524095  0.1024266017439928
  0.7680734751931695  0.7696151684322317  0.4514540841555501
  0.2317320012743309  0.0106649011982896  0.1035908774862406
  0.2671879693772254  0.2697378154601680  0.4494907433680595
  0.4076484630939632  0.5607916110652269  0.9490756728147502
 
  0.00000000E+00  0.00000000E+00  0.00000000E+00
  0.00000000E+00  0.00000000E+00  0.00000000E+00
  0.00000000E+00  0.00000000E+00  0.00000000E+00
  0.00000000E+00  0.00000000E+00  0.00000000E+00
  0.00000000E+00  0.00000000E+00  0.00000000E+00
  0.00000000E+00  0.00000000E+00  0.00000000E+00
  0.00000000E+00  0.00000000E+00  0.00000000E+00
  0.00000000E+00  0.00000000E+00  0.00000000E+00
  0.00000000E+00  0.00000000E+00  0.00000000E+00
  0.00000000E+00  0.00000000E+00  0.00000000E+00
  0.00000000E+00  0.00000000E+00  0.00000000E+00
  0.00000000E+00  0.00000000E+00  0.00000000E+00
  0.00000000E+00  0.00000000E+00  0.00000000E+00
  0.00000000E+00  0.00000000E+00  0.00000000E+00
  0.00000000E+00  0.00000000E+00  0.00000000E+00
  0.00000000E+00  0.00000000E+00  0.00000000E+00
  0.00000000E+00  0.00000000E+00  0.00000000E+00
  0.00000000E+00  0.00000000E+00  0.00000000E+00
  0.00000000E+00  0.00000000E+00  0.00000000E+00
  0.00000000E+00  0.00000000E+00  0.00000000E+00
  0.00000000E+00  0.00000000E+00  0.00000000E+00
  0.00000000E+00  0.00000000E+00  0.00000000E+00
  0.00000000E+00  0.00000000E+00  0.00000000E+00
  0.00000000E+00  0.00000000E+00  0.00000000E+00
  0.00000000E+00  0.00000000E+00  0.00000000E+00
  0.00000000E+00  0.00000000E+00  0.00000000E+00
  0.00000000E+00  0.00000000E+00  0.00000000E+00
  0.00000000E+00  0.00000000E+00  0.00000000E+00
  0.00000000E+00  0.00000000E+00  0.00000000E+00
  0.00000000E+00  0.00000000E+00  0.00000000E+00
  0.00000000E+00  0.00000000E+00  0.00000000E+00
  0.00000000E+00  0.00000000E+00  0.00000000E+00
  0.00000000E+00  0.00000000E+00  0.00000000E+00
  0.00000000E+00  0.00000000E+00  0.00000000E+00
  0.00000000E+00  0.00000000E+00  0.00000000E+00
  0.00000000E+00  0.00000000E+00  0.00000000E+00
  0.00000000E+00  0.00000000E+00  0.00000000E+00
  0.00000000E+00  0.00000000E+00  0.00000000E+00
  0.00000000E+00  0.00000000E+00  0.00000000E+00
  0.00000000E+00  0.00000000E+00  0.00000000E+00
  0.00000000E+00  0.00000000E+00  0.00000000E+00
  0.00000000E+00  0.00000000E+00  0.00000000E+00
  0.00000000E+00  0.00000000E+00  0.00000000E+00
  0.00000000E+00  0.00000000E+00  0.00000000E+00
  0.00000000E+00  0.00000000E+00  0.00000000E+00
  0.00000000E+00  0.00000000E+00  0.00000000E+00
  0.00000000E+00  0.00000000E+00  0.00000000E+00
  0.00000000E+00  0.00000000E+00  0.00000000E+00
  0.00000000E+00  0.00000000E+00  0.00000000E+00
  0.00000000E+00  0.00000000E+00  0.00000000E+00
  0.00000000E+00  0.00000000E+00  0.00000000E+00
  0.00000000E+00  0.00000000E+00  0.00000000E+00
  0.00000000E+00  0.00000000E+00  0.00000000E+00
  0.00000000E+00  0.00000000E+00  0.00000000E+00
  0.00000000E+00  0.00000000E+00  0.00000000E+00
  0.00000000E+00  0.00000000E+00  0.00000000E+00
  0.00000000E+00  0.00000000E+00  0.00000000E+00
  0.00000000E+00  0.00000000E+00  0.00000000E+00
  0.00000000E+00  0.00000000E+00  0.00000000E+00
  0.00000000E+00  0.00000000E+00  0.00000000E+00
  0.00000000E+00  0.00000000E+00  0.00000000E+00
  0.00000000E+00  0.00000000E+00  0.00000000E+00
  0.00000000E+00  0.00000000E+00  0.00000000E+00
  0.00000000E+00  0.00000000E+00  0.00000000E+00
  0.00000000E+00  0.00000000E+00  0.00000000E+00
  0.00000000E+00  0.00000000E+00  0.00000000E+00
  0.00000000E+00  0.00000000E+00  0.00000000E+00
  0.00000000E+00  0.00000000E+00  0.00000000E+00
  0.00000000E+00  0.00000000E+00  0.00000000E+00
  0.00000000E+00  0.00000000E+00  0.00000000E+00
  0.00000000E+00  0.00000000E+00  0.00000000E+00
  0.00000000E+00  0.00000000E+00  0.00000000E+00
  0.00000000E+00  0.00000000E+00  0.00000000E+00
  0.00000000E+00  0.00000000E+00  0.00000000E+00
  0.00000000E+00  0.00000000E+00  0.00000000E+00
  0.00000000E+00  0.00000000E+00  0.00000000E+00
  0.00000000E+00  0.00000000E+00  0.00000000E+00
  0.00000000E+00  0.00000000E+00  0.00000000E+00
  0.00000000E+00  0.00000000E+00  0.00000000E+00
  0.00000000E+00  0.00000000E+00  0.00000000E+00
  0.00000000E+00  0.00000000E+00  0.00000000E+00
  0.00000000E+00  0.00000000E+00  0.00000000E+00
  0.00000000E+00  0.00000000E+00  0.00000000E+00
  0.00000000E+00  0.00000000E+00  0.00000000E+00
  0.00000000E+00  0.00000000E+00  0.00000000E+00
  0.00000000E+00  0.00000000E+00  0.00000000E+00
  0.00000000E+00  0.00000000E+00  0.00000000E+00
  0.00000000E+00  0.00000000E+00  0.00000000E+00
  0.00000000E+00  0.00000000E+00  0.00000000E+00
  0.00000000E+00  0.00000000E+00  0.00000000E+00
  0.00000000E+00  0.00000000E+00  0.00000000E+00
  0.00000000E+00  0.00000000E+00  0.00000000E+00
  0.00000000E+00  0.00000000E+00  0.00000000E+00
  0.00000000E+00  0.00000000E+00  0.00000000E+00
  0.00000000E+00  0.00000000E+00  0.00000000E+00
  0.00000000E+00  0.00000000E+00  0.00000000E+00
  0.00000000E+00  0.00000000E+00  0.00000000E+00
  0.00000000E+00  0.00000000E+00  0.00000000E+00
  0.00000000E+00  0.00000000E+00  0.00000000E+00
  0.00000000E+00  0.00000000E+00  0.00000000E+00
  0.00000000E+00  0.00000000E+00  0.00000000E+00
  0.00000000E+00  0.00000000E+00  0.00000000E+00
  0.00000000E+00  0.00000000E+00  0.00000000E+00
  0.00000000E+00  0.00000000E+00  0.00000000E+00
  0.00000000E+00  0.00000000E+00  0.00000000E+00
  0.00000000E+00  0.00000000E+00  0.00000000E+00
  0.00000000E+00  0.00000000E+00  0.00000000E+00
  0.00000000E+00  0.00000000E+00  0.00000000E+00
  0.00000000E+00  0.00000000E+00  0.00000000E+00
  0.00000000E+00  0.00000000E+00  0.00000000E+00
  0.00000000E+00  0.00000000E+00  0.00000000E+00
  0.00000000E+00  0.00000000E+00  0.00000000E+00
  0.00000000E+00  0.00000000E+00  0.00000000E+00
  0.00000000E+00  0.00000000E+00  0.00000000E+00
  0.00000000E+00  0.00000000E+00  0.00000000E+00
  0.00000000E+00  0.00000000E+00  0.00000000E+00
  0.00000000E+00  0.00000000E+00  0.00000000E+00
  0.00000000E+00  0.00000000E+00  0.00000000E+00
  0.00000000E+00  0.00000000E+00  0.00000000E+00
  0.00000000E+00  0.00000000E+00  0.00000000E+00
  0.00000000E+00  0.00000000E+00  0.00000000E+00
  0.00000000E+00  0.00000000E+00  0.00000000E+00
  0.00000000E+00  0.00000000E+00  0.00000000E+00
  0.00000000E+00  0.00000000E+00  0.00000000E+00
  0.00000000E+00  0.00000000E+00  0.00000000E+00
  0.00000000E+00  0.00000000E+00  0.00000000E+00
  0.00000000E+00  0.00000000E+00  0.00000000E+00
  0.00000000E+00  0.00000000E+00  0.00000000E+00
  0.00000000E+00  0.00000000E+00  0.00000000E+00
  0.00000000E+00  0.00000000E+00  0.00000000E+00
  0.00000000E+00  0.00000000E+00  0.00000000E+00
  0.00000000E+00  0.00000000E+00  0.00000000E+00
  0.00000000E+00  0.00000000E+00  0.00000000E+00
  0.00000000E+00  0.00000000E+00  0.00000000E+00
  0.00000000E+00  0.00000000E+00  0.00000000E+00
  0.00000000E+00  0.00000000E+00  0.00000000E+00
  0.00000000E+00  0.00000000E+00  0.00000000E+00
  0.00000000E+00  0.00000000E+00  0.00000000E+00
  0.00000000E+00  0.00000000E+00  0.00000000E+00
  0.00000000E+00  0.00000000E+00  0.00000000E+00
  0.00000000E+00  0.00000000E+00  0.00000000E+00
  0.00000000E+00  0.00000000E+00  0.00000000E+00
  0.00000000E+00  0.00000000E+00  0.00000000E+00
  0.00000000E+00  0.00000000E+00  0.00000000E+00
  0.00000000E+00  0.00000000E+00  0.00000000E+00
  0.00000000E+00  0.00000000E+00  0.00000000E+00
  0.00000000E+00  0.00000000E+00  0.00000000E+00
  0.00000000E+00  0.00000000E+00  0.00000000E+00
  0.00000000E+00  0.00000000E+00  0.00000000E+00
  0.00000000E+00  0.00000000E+00  0.00000000E+00
  0.00000000E+00  0.00000000E+00  0.00000000E+00
  0.00000000E+00  0.00000000E+00  0.00000000E+00
  0.00000000E+00  0.00000000E+00  0.00000000E+00
  0.00000000E+00  0.00000000E+00  0.00000000E+00
  0.00000000E+00  0.00000000E+00  0.00000000E+00
  0.00000000E+00  0.00000000E+00  0.00000000E+00
