Co_A                                    
   1.00000000000000     
    13.4600952561763254    0.0001840686052374   -0.0044375746930264
    -0.0012833389305540   31.8992542645587243   -2.1643205112334063
    -0.0036208277376617   -0.4578395490281338    6.3412443790744923
   C    Co   H    N    O 
    80     4    32    24    16
Direct
  0.9269583147500526  0.9667858176219326  0.1315902437544665
  0.8418979089004353  0.9581067708958386  0.4238809931337784
  0.9267598654154767  0.8029148285722627  0.9265785518089515
  0.5717877134321725  0.4665734726526054  0.6244970150392035
  0.6573804603355526  0.3112769927665937  0.1261455754521634
  0.1571539019720944  0.8115784687040701  0.1340119816030736
  0.6570142835318151  0.4578721112879833  0.9168180122330511
  0.5721983353644404  0.3027106911220372  0.4184282586146324
  0.3424944724985792  0.4578844800359789  0.4164400372048007
  0.0723517374437321  0.8028593524549166  0.4265358167088564
  0.1570948600877458  0.9580301115982905  0.9242948683898504
  0.3424555738686337  0.3110678038629047  0.6254348515341022
  0.8420496226505918  0.8114783208050227  0.6334083808167392
  0.0722398453530886  0.9667078764250547  0.6314366579247093
  0.4276909048458180  0.3026208202039413  0.9181275724448454
  0.4275642961761790  0.4665493976220745  0.1241938195071697
  0.7652067263444167  0.0371901390049842  0.1117374363198564
  0.8599462047082653  0.0595826423724972  0.4496701922516380
  0.8604945131426547  0.7101897466185463  0.6062158654443408
  0.6378644990603348  0.5592701088789269  0.9448525984077847
  0.6386057915986640  0.2098232129461479  0.1014751710240418
  0.2337575167433386  0.7320800206482545  0.4443316032647786
  0.7326237909163993  0.5374547256241300  0.6068164958770623
  0.7331354012632190  0.2322065238759663  0.4396537947589536
  0.2671804296531306  0.5375206710064120  0.1059821613643095
  0.1391071931580612  0.7102557530646791  0.1057854017386219
  0.1398502190152868  0.0594876799756676  0.9498967212304379
  0.3613704613358948  0.2096029794539547  0.6014779122577352
  0.7656329277200911  0.7320735936559686  0.9441044456982652
  0.2343012969843628  0.0370169839969634  0.6120672708274739
  0.2670632702166245  0.2320541592794072  0.9395169520391491
  0.3616908944478183  0.5592756124583218  0.4447329642566871
  0.7330378558019319  0.0816088095830523  0.1132449795854455
  0.8264427443843374  0.1036078813964778  0.4438921684004598
  0.8268212663512244  0.6661150215744200  0.6097355770137725
  0.6714211953000486  0.6033646661223386  0.9412897526579158
  0.6717619971476623  0.1657639541249978  0.1077130388648655
  0.2661403007741399  0.6876143151894922  0.4405058788559515
  0.7648539373820071  0.5819210981561653  0.6105359409167761
  0.7650817495092710  0.1877666760092964  0.4384422284652558
  0.2350115307652629  0.5819951556372160  0.1096515694224394
  0.1729353335615826  0.6661839333918351  0.1090441987893556
  0.1734912810072231  0.1034978228938854  0.9440549813853494
  0.3281954279342614  0.1655471440848473  0.6079161211403417
  0.7334138600910123  0.6875939765356378  0.9405371019586397
  0.2666681141580511  0.0814177432588821  0.6136043299340557
  0.2350510649763180  0.1876246006753561  0.9384271073922505
  0.3281765011839681  0.6033807565454197  0.4411575906453038
  0.6720693910796598  0.0920043710822540  0.9516943082794214
  0.8567474056466295  0.1354499150067880  0.6025269002836282
  0.8569572860705605  0.6345269257480837  0.4497959262785187
  0.6412188148729712  0.6349685622616477  0.1011188464525148
  0.6413910216078520  0.1339228569490132  0.9491347199930473
  0.3272383325487027  0.6769083105582823  0.6011922254809292
  0.8259268046191721  0.5925883072554399  0.4499914371039111
  0.8260083971027754  0.1773650682369095  0.6000405840439598
  0.1740579101744473  0.5926907103133416  0.9487720779242323
  0.1429503685142706  0.6346268939972148  0.9486812967572220
  0.1433567848306083  0.1353684798185100  0.1025870833206071
  0.3584701727253545  0.1336679869116111  0.4495788793799491
  0.6722690974892913  0.6769129601101582  0.1009727122384376
  0.3276637864338454  0.0917670112828475  0.4521916330949125
  0.1741866910342225  0.1772680581582975  0.1000082064849650
  0.3583056825416477  0.6349623643315283  0.6012917010069145
  0.8603367109359894  0.9867808265014375  0.2811251694917800
  0.8603608647816685  0.7828477422635984  0.7764882419741994
  0.6382795861387649  0.4866061073833805  0.7744713172548643
  0.6388006202923719  0.2826600299107369  0.2691057079374843
  0.1388895485017372  0.7828791953258403  0.2767412281243082
  0.3612354177421579  0.4866171988048791  0.2741383046289840
  0.1388967310318350  0.9866853423655257  0.7812462794443604
  0.3611691594494459  0.2824862918457569  0.7685975453669727
  0.7644778496822369  0.1133917515480221  0.2773626519098329
  0.7647209067927179  0.6560541680022354  0.7752333152098956
  0.7335451866035214  0.6134469278170229  0.7758728899700671
  0.7336335792585160  0.1559721913474661  0.2743625184091414
  0.2349792304483884  0.6560995462125803  0.2748080838040465
  0.2661768457103975  0.6134944787200496  0.2753918961933266
  0.2353993901451616  0.1132378111758925  0.7775768637771634
  0.2663462688084337  0.1558026307321114  0.7744722333874492
  0.0334830893289322  0.8848183913222485  0.0292751295728095
  0.9654210855713856  0.8847657945581275  0.5286119467096810
  0.4656388931554929  0.3845260755344100  0.5209732589570422
  0.5337777897055460  0.3845430234680123  0.0210932931432026
  0.4060870967867842  0.1421046644538393  0.3233584716844859
  0.8487595713576610  0.5676103292408428  0.3248859597894125
  0.8489797986868339  0.2025341841806849  0.7241286307355210
  0.6491050361124024  0.0668377523575003  0.8275821988287859
  0.6493796698496013  0.7018840368359918  0.2260647075795319
  0.5934281266828592  0.6262869725202691  0.2265021237565747
  0.0952242225428179  0.6433321495601803  0.8230936053319837
  0.0957114028780097  0.1269395598792116  0.2287732201547499
  0.9047326878075310  0.6432244232216462  0.3244309646049217
  0.1513447067319618  0.2024606981064352  0.2240157423918632
  0.1513279930829299  0.5677353183028586  0.8233637126033955
  0.3500297215297863  0.7018621719968152  0.7265707559487424
  0.4060418537749300  0.6262659848888745  0.7268898673824467
  0.5937706982612028  0.1424084568825990  0.8228480445972863
  0.9044666725488710  0.1269866500134142  0.7287017835631531
  0.3505205752779190  0.0665775639893482  0.3281793902750891
  0.7016429632771448  0.4613848837948069  0.0606785091340925
  0.2978755159058082  0.3074376662013236  0.4814794152572404
  0.4604943280164449  0.4782484243222740  0.9881751814394732
  0.0395830506796031  0.7911793742834163  0.5627885338223635
  0.2016084844742920  0.9615344604556100  0.0683240353588843
  0.4606440774033231  0.2910387356040545  0.0545520033121392
  0.9598147942571416  0.9784491255072112  0.9953705816818541
  0.7976063751837046  0.8078910349703605  0.4892709999534333
  0.0395574309052051  0.9783607120025266  0.4948909217611757
  0.5387891116464374  0.4782964695815934  0.4884967835627378
  0.7019532094953860  0.3077003760852435  0.9823498190825646
  0.7972878146158706  0.9616276994482860  0.5675929735690843
  0.5393193117378843  0.2910863830034529  0.5546883020479925
  0.2979649372383761  0.4614111202493660  0.5602748832076898
  0.2016550977289313  0.8080894443865887  0.9901465193683379
  0.9595034898029837  0.7912966311453005  0.0631388787177585
  0.9474818434032457  0.9282431485409788  0.1826844821848397
  0.8950752057976459  0.9226446670138486  0.3614715244208639
  0.9473279503786145  0.8414445865546725  0.8754279445327455
  0.5515542564055451  0.4279654110886923  0.6750212989289892
  0.6042662950306763  0.3467732581199385  0.1883603755898804
  0.1039474172245036  0.8470222330825692  0.1966031869360521
  0.6040678374756894  0.4223560111312352  0.8538708808862125
  0.5517891197163749  0.3412383369254286  0.3671560087276688
  0.3953052032356794  0.4223419595590272  0.3535130458810514
  0.0516817133470795  0.8413978009568766  0.3755371875824451
  0.1037387181425515  0.9226073010742653  0.8617909126162644
  0.3954143100898762  0.3466212365310781  0.6877565180870064
  0.8951221918750321  0.8469760803673054  0.6960695375396924
  0.0514503866038680  0.9282000732068241  0.6826475212034993
  0.4479206417094161  0.3411566885749409  0.8668199388556559
  0.4477273398206094  0.4279317894052070  0.1747022294789744
  0.8243049765575634  0.0287463788418734  0.2855396647400994
  0.8246555965229234  0.7408114114851614  0.7710035468691103
  0.6738245284564215  0.5286692344011641  0.7801422715143076
  0.6745389083130462  0.2406711067188780  0.2651842308571801
  0.1747529362632108  0.7408540040448983  0.2710537232524075
  0.3257951912986030  0.5286949137912416  0.2797064403638387
  0.1751703564164515  0.0286202004915950  0.7856998835245577
  0.3255051621270368  0.2404873781368195  0.7649422037895093
  0.7423272698052301  0.0089381175393299  0.9688036450971396
  0.9156977061139955  0.0500224575592156  0.5885468340710105
  0.9164688988531751  0.7199688466475394  0.4684387934346788
  0.5818984364373421  0.5494655062425196  0.0825901347665976
  0.5829731727528298  0.2194119698253161  0.9624486055501222
  0.2564770013261892  0.7600906360030351  0.5885825548386308
  0.7553082526656141  0.5094473441695229  0.4626219798392555
  0.7558719740438917  0.2604566470581346  0.5827331171410819
  0.2445494575759497  0.5095320378103239  0.9615509684244330
  0.0831428768460540  0.7200412729183441  0.9678178645986151
  0.0842052674574276  0.0499775137720704  0.0888784477936184
  0.4169539059082012  0.2191538633815782  0.4624611091522937
  0.7427299363421795  0.7601252749052563  0.0879129068178983
  0.2570491363214344  0.0087462912790670  0.4692208913057456
  0.2444857112870338  0.2603189169030742  0.0825320325524928
  0.4175428351183683  0.5494426916728656  0.5827872946898012
 
  0.00000000E+00  0.00000000E+00  0.00000000E+00
  0.00000000E+00  0.00000000E+00  0.00000000E+00
  0.00000000E+00  0.00000000E+00  0.00000000E+00
  0.00000000E+00  0.00000000E+00  0.00000000E+00
  0.00000000E+00  0.00000000E+00  0.00000000E+00
  0.00000000E+00  0.00000000E+00  0.00000000E+00
  0.00000000E+00  0.00000000E+00  0.00000000E+00
  0.00000000E+00  0.00000000E+00  0.00000000E+00
  0.00000000E+00  0.00000000E+00  0.00000000E+00
  0.00000000E+00  0.00000000E+00  0.00000000E+00
  0.00000000E+00  0.00000000E+00  0.00000000E+00
  0.00000000E+00  0.00000000E+00  0.00000000E+00
  0.00000000E+00  0.00000000E+00  0.00000000E+00
  0.00000000E+00  0.00000000E+00  0.00000000E+00
  0.00000000E+00  0.00000000E+00  0.00000000E+00
  0.00000000E+00  0.00000000E+00  0.00000000E+00
  0.00000000E+00  0.00000000E+00  0.00000000E+00
  0.00000000E+00  0.00000000E+00  0.00000000E+00
  0.00000000E+00  0.00000000E+00  0.00000000E+00
  0.00000000E+00  0.00000000E+00  0.00000000E+00
  0.00000000E+00  0.00000000E+00  0.00000000E+00
  0.00000000E+00  0.00000000E+00  0.00000000E+00
  0.00000000E+00  0.00000000E+00  0.00000000E+00
  0.00000000E+00  0.00000000E+00  0.00000000E+00
  0.00000000E+00  0.00000000E+00  0.00000000E+00
  0.00000000E+00  0.00000000E+00  0.00000000E+00
  0.00000000E+00  0.00000000E+00  0.00000000E+00
  0.00000000E+00  0.00000000E+00  0.00000000E+00
  0.00000000E+00  0.00000000E+00  0.00000000E+00
  0.00000000E+00  0.00000000E+00  0.00000000E+00
  0.00000000E+00  0.00000000E+00  0.00000000E+00
  0.00000000E+00  0.00000000E+00  0.00000000E+00
  0.00000000E+00  0.00000000E+00  0.00000000E+00
  0.00000000E+00  0.00000000E+00  0.00000000E+00
  0.00000000E+00  0.00000000E+00  0.00000000E+00
  0.00000000E+00  0.00000000E+00  0.00000000E+00
  0.00000000E+00  0.00000000E+00  0.00000000E+00
  0.00000000E+00  0.00000000E+00  0.00000000E+00
  0.00000000E+00  0.00000000E+00  0.00000000E+00
  0.00000000E+00  0.00000000E+00  0.00000000E+00
  0.00000000E+00  0.00000000E+00  0.00000000E+00
  0.00000000E+00  0.00000000E+00  0.00000000E+00
  0.00000000E+00  0.00000000E+00  0.00000000E+00
  0.00000000E+00  0.00000000E+00  0.00000000E+00
  0.00000000E+00  0.00000000E+00  0.00000000E+00
  0.00000000E+00  0.00000000E+00  0.00000000E+00
  0.00000000E+00  0.00000000E+00  0.00000000E+00
  0.00000000E+00  0.00000000E+00  0.00000000E+00
  0.00000000E+00  0.00000000E+00  0.00000000E+00
  0.00000000E+00  0.00000000E+00  0.00000000E+00
  0.00000000E+00  0.00000000E+00  0.00000000E+00
  0.00000000E+00  0.00000000E+00  0.00000000E+00
  0.00000000E+00  0.00000000E+00  0.00000000E+00
  0.00000000E+00  0.00000000E+00  0.00000000E+00
  0.00000000E+00  0.00000000E+00  0.00000000E+00
  0.00000000E+00  0.00000000E+00  0.00000000E+00
  0.00000000E+00  0.00000000E+00  0.00000000E+00
  0.00000000E+00  0.00000000E+00  0.00000000E+00
  0.00000000E+00  0.00000000E+00  0.00000000E+00
  0.00000000E+00  0.00000000E+00  0.00000000E+00
  0.00000000E+00  0.00000000E+00  0.00000000E+00
  0.00000000E+00  0.00000000E+00  0.00000000E+00
  0.00000000E+00  0.00000000E+00  0.00000000E+00
  0.00000000E+00  0.00000000E+00  0.00000000E+00
  0.00000000E+00  0.00000000E+00  0.00000000E+00
  0.00000000E+00  0.00000000E+00  0.00000000E+00
  0.00000000E+00  0.00000000E+00  0.00000000E+00
  0.00000000E+00  0.00000000E+00  0.00000000E+00
  0.00000000E+00  0.00000000E+00  0.00000000E+00
  0.00000000E+00  0.00000000E+00  0.00000000E+00
  0.00000000E+00  0.00000000E+00  0.00000000E+00
  0.00000000E+00  0.00000000E+00  0.00000000E+00
  0.00000000E+00  0.00000000E+00  0.00000000E+00
  0.00000000E+00  0.00000000E+00  0.00000000E+00
  0.00000000E+00  0.00000000E+00  0.00000000E+00
  0.00000000E+00  0.00000000E+00  0.00000000E+00
  0.00000000E+00  0.00000000E+00  0.00000000E+00
  0.00000000E+00  0.00000000E+00  0.00000000E+00
  0.00000000E+00  0.00000000E+00  0.00000000E+00
  0.00000000E+00  0.00000000E+00  0.00000000E+00
  0.00000000E+00  0.00000000E+00  0.00000000E+00
  0.00000000E+00  0.00000000E+00  0.00000000E+00
  0.00000000E+00  0.00000000E+00  0.00000000E+00
  0.00000000E+00  0.00000000E+00  0.00000000E+00
  0.00000000E+00  0.00000000E+00  0.00000000E+00
  0.00000000E+00  0.00000000E+00  0.00000000E+00
  0.00000000E+00  0.00000000E+00  0.00000000E+00
  0.00000000E+00  0.00000000E+00  0.00000000E+00
  0.00000000E+00  0.00000000E+00  0.00000000E+00
  0.00000000E+00  0.00000000E+00  0.00000000E+00
  0.00000000E+00  0.00000000E+00  0.00000000E+00
  0.00000000E+00  0.00000000E+00  0.00000000E+00
  0.00000000E+00  0.00000000E+00  0.00000000E+00
  0.00000000E+00  0.00000000E+00  0.00000000E+00
  0.00000000E+00  0.00000000E+00  0.00000000E+00
  0.00000000E+00  0.00000000E+00  0.00000000E+00
  0.00000000E+00  0.00000000E+00  0.00000000E+00
  0.00000000E+00  0.00000000E+00  0.00000000E+00
  0.00000000E+00  0.00000000E+00  0.00000000E+00
  0.00000000E+00  0.00000000E+00  0.00000000E+00
  0.00000000E+00  0.00000000E+00  0.00000000E+00
  0.00000000E+00  0.00000000E+00  0.00000000E+00
  0.00000000E+00  0.00000000E+00  0.00000000E+00
  0.00000000E+00  0.00000000E+00  0.00000000E+00
  0.00000000E+00  0.00000000E+00  0.00000000E+00
  0.00000000E+00  0.00000000E+00  0.00000000E+00
  0.00000000E+00  0.00000000E+00  0.00000000E+00
  0.00000000E+00  0.00000000E+00  0.00000000E+00
  0.00000000E+00  0.00000000E+00  0.00000000E+00
  0.00000000E+00  0.00000000E+00  0.00000000E+00
  0.00000000E+00  0.00000000E+00  0.00000000E+00
  0.00000000E+00  0.00000000E+00  0.00000000E+00
  0.00000000E+00  0.00000000E+00  0.00000000E+00
  0.00000000E+00  0.00000000E+00  0.00000000E+00
  0.00000000E+00  0.00000000E+00  0.00000000E+00
  0.00000000E+00  0.00000000E+00  0.00000000E+00
  0.00000000E+00  0.00000000E+00  0.00000000E+00
  0.00000000E+00  0.00000000E+00  0.00000000E+00
  0.00000000E+00  0.00000000E+00  0.00000000E+00
  0.00000000E+00  0.00000000E+00  0.00000000E+00
  0.00000000E+00  0.00000000E+00  0.00000000E+00
  0.00000000E+00  0.00000000E+00  0.00000000E+00
  0.00000000E+00  0.00000000E+00  0.00000000E+00
  0.00000000E+00  0.00000000E+00  0.00000000E+00
  0.00000000E+00  0.00000000E+00  0.00000000E+00
  0.00000000E+00  0.00000000E+00  0.00000000E+00
  0.00000000E+00  0.00000000E+00  0.00000000E+00
  0.00000000E+00  0.00000000E+00  0.00000000E+00
  0.00000000E+00  0.00000000E+00  0.00000000E+00
  0.00000000E+00  0.00000000E+00  0.00000000E+00
  0.00000000E+00  0.00000000E+00  0.00000000E+00
  0.00000000E+00  0.00000000E+00  0.00000000E+00
  0.00000000E+00  0.00000000E+00  0.00000000E+00
  0.00000000E+00  0.00000000E+00  0.00000000E+00
  0.00000000E+00  0.00000000E+00  0.00000000E+00
  0.00000000E+00  0.00000000E+00  0.00000000E+00
  0.00000000E+00  0.00000000E+00  0.00000000E+00
  0.00000000E+00  0.00000000E+00  0.00000000E+00
  0.00000000E+00  0.00000000E+00  0.00000000E+00
  0.00000000E+00  0.00000000E+00  0.00000000E+00
  0.00000000E+00  0.00000000E+00  0.00000000E+00
  0.00000000E+00  0.00000000E+00  0.00000000E+00
  0.00000000E+00  0.00000000E+00  0.00000000E+00
  0.00000000E+00  0.00000000E+00  0.00000000E+00
  0.00000000E+00  0.00000000E+00  0.00000000E+00
  0.00000000E+00  0.00000000E+00  0.00000000E+00
  0.00000000E+00  0.00000000E+00  0.00000000E+00
  0.00000000E+00  0.00000000E+00  0.00000000E+00
  0.00000000E+00  0.00000000E+00  0.00000000E+00
  0.00000000E+00  0.00000000E+00  0.00000000E+00
  0.00000000E+00  0.00000000E+00  0.00000000E+00
  0.00000000E+00  0.00000000E+00  0.00000000E+00
  0.00000000E+00  0.00000000E+00  0.00000000E+00
  0.00000000E+00  0.00000000E+00  0.00000000E+00
  0.00000000E+00  0.00000000E+00  0.00000000E+00
  0.00000000E+00  0.00000000E+00  0.00000000E+00
