CoH_exp7	                               
   1.00000000000000     
    24.5209726349274995   -0.0002773078660653   -0.0000592912728127
     0.0005345226239889   24.6522860854485018    3.5889744923891644
     0.0005928266431695    0.4129705474663057    6.9116273497556442
   C    Co   H    N    O 
    80     4    32    24    16
Direct
  0.9024685175184501  0.9682219057762680  0.1175730893240399
  0.9327720118382672  0.9810599572021346  0.4084264642617370
  0.9023634277639516  0.8121232281172865  0.9345426095193332
  0.5974733743406233  0.4682187028783815  0.6176564206147575
  0.5674083455143020  0.2989823304945887  0.1442862193676575
  0.0670789569201418  0.7988576550389510  0.1436452740685752
  0.5672186562683876  0.4810476486435391  0.9086192957663641
  0.5976155349552812  0.3121104098563094  0.4348680070438036
  0.4325559304369477  0.4809039754128932  0.4085260151185039
  0.0974229765225871  0.8117943798040628  0.4342951156672967
  0.0672542534469756  0.9810255539861501  0.9081937432686473
  0.4327371095367383  0.2989341879709428  0.6440826096535730
  0.9325882462401154  0.7990066199888517  0.6439587188690084
  0.0975878492160618  0.9680856105946134  0.6175004945220905
  0.4024672878718079  0.3119173415794947  0.9347862788810346
  0.4023264249295835  0.4679157091464674  0.1177755680636281
  0.8228484451055564  0.0365986063663399  0.4453211945512976
  0.8441034240689405  0.0797916201063700  0.0928088213462459
  0.8435055919803673  0.7007723916449748  0.9606351870716665
  0.6558574034719271  0.5797765732629472  0.5928082371168557
  0.6565051637336978  0.2007908929637949  0.4609562443644961
  0.1772295919672686  0.7434084166947699  0.1075917887465820
  0.6771491185345937  0.5365780823851622  0.9452686919158353
  0.6776664120459444  0.2438481590725772  0.1083376341436022
  0.3224889700888340  0.5362420483028316  0.4451015051185649
  0.1558187512821192  0.7002132596153245  0.4599109652505362
  0.1560211773836429  0.0796468472101637  0.5926207284750049
  0.3438156956651213  0.2004643987196957  0.9604371641000427
  0.8223514532205414  0.7438120663100420  0.6080413538970788
  0.1772355413339497  0.0364641725780857  0.9451137597387458
  0.3225614115693887  0.2436269089145071  0.6079933134789570
  0.3436829435426674  0.5793390145296513  0.0924716558280849
  0.7801521812119319  0.0788381797430944  0.4450829670727003
  0.8017710053585603  0.1218182225436806  0.1015254098229619
  0.8010739706346470  0.6587926482548312  0.9522256399565237
  0.6981947858934419  0.6218011108647801  0.6014259709905545
  0.6989256604805618  0.1588048648478448  0.4525120900046389
  0.2200235882880932  0.7012472337318343  0.1081522567012740
  0.7198386962154402  0.5788283682137347  0.9449613059061051
  0.7205083452013739  0.2017256272175842  0.1088691229062775
  0.2796808227479275  0.5784053198595913  0.4446215608952286
  0.1982933780164444  0.6582632940520057  0.4515901588195348
  0.1984004161535182  0.1216418295718000  0.6012178789197478
  0.3013461835943616  0.1585266004808901  0.9520081435544654
  0.7794977641278393  0.7016945278927835  0.6085984862772378
  0.2199966135407223  0.0786528752994542  0.9447817756420989
  0.2797190507275147  0.2015023964936162  0.6084970640457570
  0.3013205210590684  0.6213498057598983  0.1010252860953003
  0.7490625248597951  0.0778809761374291  0.6136936971735594
  0.7921921173232462  0.1630741815801215  0.9369115812972453
  0.7914448056283447  0.6175915783231787  0.1169838479138718
  0.7077799596019929  0.6630411725405025  0.4367721014371639
  0.7085672599789277  0.1175939945828830  0.6172425862661797
  0.2511892757749479  0.7022489125884661  0.9396714457761846
  0.7509447388868722  0.5778802640974305  0.1135161999673073
  0.7516636795607141  0.2027538924264505  0.9403454773552937
  0.2485079721744796  0.5774267907623667  0.6130642926630117
  0.2079241082975614  0.6170702651250153  0.6163545199490272
  0.2079930260065339  0.1628889110806497  0.4366065629663112
  0.2916863863620307  0.1173198834421427  0.1167286365707056
  0.7483299312719467  0.7027086136267968  0.4401234538501626
  0.2511172361215301  0.0776691317760836  0.1133234523487872
  0.2485464911339506  0.2025426804580164  0.4400073314160622
  0.2917196454053936  0.6625647513748589  0.9363160609029322
  0.8933773871756401  0.9990060965494010  0.2633150159726441
  0.8931652661412315  0.7812438226775313  0.7892102051887733
  0.6065948516923356  0.4989910259632921  0.7634027542371555
  0.6068287745161172  0.2812377353447602  0.2895401882691360
  0.1064721380238041  0.7809210921401473  0.2888210672687777
  0.3931393667061087  0.4987224182487111  0.2633864670909389
  0.1066838645527355  0.9989038006566631  0.7631399438040560
  0.3933382354492991  0.2810616789611800  0.7893279381886202
  0.7708339002735372  0.1200986938802231  0.2751443431963949
  0.7701365895110399  0.6604727730214393  0.7786368568127386
  0.7291434471804621  0.6200866423387197  0.7749895528251756
  0.7298533745090694  0.1604923133888150  0.2788767439487145
  0.2293191554350358  0.6599982903463157  0.2781372247550777
  0.2703549295466487  0.6196360215130241  0.2745855559992094
  0.2293526089192639  0.1198988723201069  0.7747990568228502
  0.2703755835149337  0.1602593166766297  0.7784734134484594
  0.9886246229161699  0.8900858274354277  0.0258897841636312
  0.0113190323923931  0.8899893455311698  0.5258212803736768
  0.5112879303562039  0.3900612811402340  0.5261575747260423
  0.4886908348827816  0.3899690791331665  0.0262149790587003
  0.3161277372741225  0.1167790909844442  0.2485315342491461
  0.7428389181044111  0.5458448762750976  0.2427106986332888
  0.7435663097331755  0.2348000221686775  0.8111773608188670
  0.7571736899818475  0.0458483072941647  0.7428603317446090
  0.7564224422922123  0.7347367955838209  0.3108699846734027
  0.6833222000402870  0.6635415350765825  0.3050438297569968
  0.1834583772140945  0.6165607852101971  0.7480985171360501
  0.1835139731715287  0.1634083482925703  0.3049209114203393
  0.8158589571746688  0.6170818562349254  0.2488006199849622
  0.2566503778110487  0.2345725349859933  0.3107892202288980
  0.2566166796691789  0.5454329516561955  0.7423336410968346
  0.2431102171827462  0.7342791218119089  0.8104210309779845
  0.3161842182998456  0.6630489651079543  0.8045961056735322
  0.6841638964850532  0.1170896219583994  0.7491419705143940
  0.8166571383661534  0.1635780952923866  0.8051780121937142
  0.2429934201212376  0.0456413369388855  0.2424987491610437
  0.5600840853443643  0.4933649528394710  0.0479644509823203
  0.4398021764337869  0.2865551940773727  0.5048145506862767
  0.3819754210804760  0.4695218871158744  0.9775230417007919
  0.1178117973147579  0.8101429038106716  0.5745089367383471
  0.0601011959247799  0.9933831291827460  0.0474464425708732
  0.3821199134300315  0.3103000596906682  0.0750519654720989
  0.8821414220998847  0.9699305778651208  0.9772157791029414
  0.9396473510239360  0.7865618696122851  0.5048133753786885
  0.1179499412827383  0.9697638492196674  0.4772094723835067
  0.6177766889924641  0.4699179699051044  0.4772570128056657
  0.5603532559826760  0.2865333639297631  0.0051438852339132
  0.9399249700170316  0.9933747635002632  0.5477430554331733
  0.6179360081218164  0.3105728230132030  0.5751181088204333
  0.4396449159910318  0.4932763566687157  0.5477780878608272
  0.0599535579421939  0.7864874744490749  0.0043988142594600
  0.8820243606615108  0.8105752226457810  0.0747799186289981
  0.9445754796681030  0.9337365603421688  0.1742636470536567
  0.9633480637525977  0.9418528510431443  0.3527615729194622
  0.9445460354255673  0.8464802937528688  0.8775204237587104
  0.5553768947254270  0.4337251389247498  0.6744700999647719
  0.5366980566219581  0.3381667695420632  0.1995196438379736
  0.0365409480150873  0.8381339849578637  0.1990576164445841
  0.5366336567362353  0.4418394534299495  0.8530276145443594
  0.5554214207011086  0.3464551089441557  0.3778657029520076
  0.4632446806057118  0.4417579762151433  0.3529930507343408
  0.0553442128107093  0.8463026008610512  0.3774589036141123
  0.0366557283768145  0.9418246810585700  0.8526196832444768
  0.4633567873576965  0.3381562464464594  0.6994455560694064
  0.9632893049303703  0.8381946015380421  0.6991842705380762
  0.0554449182080319  0.9336360053873136  0.6742004082267030
  0.4445962429979389  0.3463580496069767  0.8778685136338922
  0.4445146412717804  0.4335417276574773  0.1745671105367634
  0.8525341138875220  0.0394259079312747  0.2669422097426022
  0.8521715309692297  0.7409209335481961  0.7861121824683650
  0.6474453751764244  0.5394088250541884  0.7669432079144443
  0.6478417619394321  0.2409408116727576  0.2864389830175611
  0.1473603632857277  0.7405026847005658  0.2856023217904706
  0.3522135831126079  0.5390796545555716  0.2667958026335384
  0.1475637055034653  0.0392924735722886  0.7667441799719938
  0.3523976475911539  0.2406992789758178  0.7860733042346055
  0.8322996187690777  0.0006907561183169  0.5912323425755375
  0.8706169113639532  0.0793974392516930  0.9425072714616078
  0.8699318220317878  0.7012609258118587  0.1110308034404071
  0.6293171990112043  0.5793869414943700  0.4425722981428564
  0.6300734533369337  0.2012892395658739  0.6113583823516535
  0.1678270750641317  0.7793114769296352  0.9616613379746184
  0.6677176803863745  0.5006677895640976  0.0912074864331345
  0.6682073159501343  0.2797218777102515  0.9623741168545763
  0.3319841524872089  0.5003826240770906  0.5911022260219383
  0.1292122252945234  0.7005824925225284  0.6100235143040109
  0.1294797060823996  0.0792881657556705  0.4423629819955934
  0.3703294309710259  0.2008578998264028  0.1107083055912668
  0.8318150683375194  0.7796811304523317  0.4620519988649221
  0.1677291326303560  0.0006018935247383  0.0911064334223752
  0.3320029412507353  0.2795186868919117  0.4620562509019877
  0.3701429709087591  0.5788794691258872  0.9420926561632541
 
  0.00000000E+00  0.00000000E+00  0.00000000E+00
  0.00000000E+00  0.00000000E+00  0.00000000E+00
  0.00000000E+00  0.00000000E+00  0.00000000E+00
  0.00000000E+00  0.00000000E+00  0.00000000E+00
  0.00000000E+00  0.00000000E+00  0.00000000E+00
  0.00000000E+00  0.00000000E+00  0.00000000E+00
  0.00000000E+00  0.00000000E+00  0.00000000E+00
  0.00000000E+00  0.00000000E+00  0.00000000E+00
  0.00000000E+00  0.00000000E+00  0.00000000E+00
  0.00000000E+00  0.00000000E+00  0.00000000E+00
  0.00000000E+00  0.00000000E+00  0.00000000E+00
  0.00000000E+00  0.00000000E+00  0.00000000E+00
  0.00000000E+00  0.00000000E+00  0.00000000E+00
  0.00000000E+00  0.00000000E+00  0.00000000E+00
  0.00000000E+00  0.00000000E+00  0.00000000E+00
  0.00000000E+00  0.00000000E+00  0.00000000E+00
  0.00000000E+00  0.00000000E+00  0.00000000E+00
  0.00000000E+00  0.00000000E+00  0.00000000E+00
  0.00000000E+00  0.00000000E+00  0.00000000E+00
  0.00000000E+00  0.00000000E+00  0.00000000E+00
  0.00000000E+00  0.00000000E+00  0.00000000E+00
  0.00000000E+00  0.00000000E+00  0.00000000E+00
  0.00000000E+00  0.00000000E+00  0.00000000E+00
  0.00000000E+00  0.00000000E+00  0.00000000E+00
  0.00000000E+00  0.00000000E+00  0.00000000E+00
  0.00000000E+00  0.00000000E+00  0.00000000E+00
  0.00000000E+00  0.00000000E+00  0.00000000E+00
  0.00000000E+00  0.00000000E+00  0.00000000E+00
  0.00000000E+00  0.00000000E+00  0.00000000E+00
  0.00000000E+00  0.00000000E+00  0.00000000E+00
  0.00000000E+00  0.00000000E+00  0.00000000E+00
  0.00000000E+00  0.00000000E+00  0.00000000E+00
  0.00000000E+00  0.00000000E+00  0.00000000E+00
  0.00000000E+00  0.00000000E+00  0.00000000E+00
  0.00000000E+00  0.00000000E+00  0.00000000E+00
  0.00000000E+00  0.00000000E+00  0.00000000E+00
  0.00000000E+00  0.00000000E+00  0.00000000E+00
  0.00000000E+00  0.00000000E+00  0.00000000E+00
  0.00000000E+00  0.00000000E+00  0.00000000E+00
  0.00000000E+00  0.00000000E+00  0.00000000E+00
  0.00000000E+00  0.00000000E+00  0.00000000E+00
  0.00000000E+00  0.00000000E+00  0.00000000E+00
  0.00000000E+00  0.00000000E+00  0.00000000E+00
  0.00000000E+00  0.00000000E+00  0.00000000E+00
  0.00000000E+00  0.00000000E+00  0.00000000E+00
  0.00000000E+00  0.00000000E+00  0.00000000E+00
  0.00000000E+00  0.00000000E+00  0.00000000E+00
  0.00000000E+00  0.00000000E+00  0.00000000E+00
  0.00000000E+00  0.00000000E+00  0.00000000E+00
  0.00000000E+00  0.00000000E+00  0.00000000E+00
  0.00000000E+00  0.00000000E+00  0.00000000E+00
  0.00000000E+00  0.00000000E+00  0.00000000E+00
  0.00000000E+00  0.00000000E+00  0.00000000E+00
  0.00000000E+00  0.00000000E+00  0.00000000E+00
  0.00000000E+00  0.00000000E+00  0.00000000E+00
  0.00000000E+00  0.00000000E+00  0.00000000E+00
  0.00000000E+00  0.00000000E+00  0.00000000E+00
  0.00000000E+00  0.00000000E+00  0.00000000E+00
  0.00000000E+00  0.00000000E+00  0.00000000E+00
  0.00000000E+00  0.00000000E+00  0.00000000E+00
  0.00000000E+00  0.00000000E+00  0.00000000E+00
  0.00000000E+00  0.00000000E+00  0.00000000E+00
  0.00000000E+00  0.00000000E+00  0.00000000E+00
  0.00000000E+00  0.00000000E+00  0.00000000E+00
  0.00000000E+00  0.00000000E+00  0.00000000E+00
  0.00000000E+00  0.00000000E+00  0.00000000E+00
  0.00000000E+00  0.00000000E+00  0.00000000E+00
  0.00000000E+00  0.00000000E+00  0.00000000E+00
  0.00000000E+00  0.00000000E+00  0.00000000E+00
  0.00000000E+00  0.00000000E+00  0.00000000E+00
  0.00000000E+00  0.00000000E+00  0.00000000E+00
  0.00000000E+00  0.00000000E+00  0.00000000E+00
  0.00000000E+00  0.00000000E+00  0.00000000E+00
  0.00000000E+00  0.00000000E+00  0.00000000E+00
  0.00000000E+00  0.00000000E+00  0.00000000E+00
  0.00000000E+00  0.00000000E+00  0.00000000E+00
  0.00000000E+00  0.00000000E+00  0.00000000E+00
  0.00000000E+00  0.00000000E+00  0.00000000E+00
  0.00000000E+00  0.00000000E+00  0.00000000E+00
  0.00000000E+00  0.00000000E+00  0.00000000E+00
  0.00000000E+00  0.00000000E+00  0.00000000E+00
  0.00000000E+00  0.00000000E+00  0.00000000E+00
  0.00000000E+00  0.00000000E+00  0.00000000E+00
  0.00000000E+00  0.00000000E+00  0.00000000E+00
  0.00000000E+00  0.00000000E+00  0.00000000E+00
  0.00000000E+00  0.00000000E+00  0.00000000E+00
  0.00000000E+00  0.00000000E+00  0.00000000E+00
  0.00000000E+00  0.00000000E+00  0.00000000E+00
  0.00000000E+00  0.00000000E+00  0.00000000E+00
  0.00000000E+00  0.00000000E+00  0.00000000E+00
  0.00000000E+00  0.00000000E+00  0.00000000E+00
  0.00000000E+00  0.00000000E+00  0.00000000E+00
  0.00000000E+00  0.00000000E+00  0.00000000E+00
  0.00000000E+00  0.00000000E+00  0.00000000E+00
  0.00000000E+00  0.00000000E+00  0.00000000E+00
  0.00000000E+00  0.00000000E+00  0.00000000E+00
  0.00000000E+00  0.00000000E+00  0.00000000E+00
  0.00000000E+00  0.00000000E+00  0.00000000E+00
  0.00000000E+00  0.00000000E+00  0.00000000E+00
  0.00000000E+00  0.00000000E+00  0.00000000E+00
  0.00000000E+00  0.00000000E+00  0.00000000E+00
  0.00000000E+00  0.00000000E+00  0.00000000E+00
  0.00000000E+00  0.00000000E+00  0.00000000E+00
  0.00000000E+00  0.00000000E+00  0.00000000E+00
  0.00000000E+00  0.00000000E+00  0.00000000E+00
  0.00000000E+00  0.00000000E+00  0.00000000E+00
  0.00000000E+00  0.00000000E+00  0.00000000E+00
  0.00000000E+00  0.00000000E+00  0.00000000E+00
  0.00000000E+00  0.00000000E+00  0.00000000E+00
  0.00000000E+00  0.00000000E+00  0.00000000E+00
  0.00000000E+00  0.00000000E+00  0.00000000E+00
  0.00000000E+00  0.00000000E+00  0.00000000E+00
  0.00000000E+00  0.00000000E+00  0.00000000E+00
  0.00000000E+00  0.00000000E+00  0.00000000E+00
  0.00000000E+00  0.00000000E+00  0.00000000E+00
  0.00000000E+00  0.00000000E+00  0.00000000E+00
  0.00000000E+00  0.00000000E+00  0.00000000E+00
  0.00000000E+00  0.00000000E+00  0.00000000E+00
  0.00000000E+00  0.00000000E+00  0.00000000E+00
  0.00000000E+00  0.00000000E+00  0.00000000E+00
  0.00000000E+00  0.00000000E+00  0.00000000E+00
  0.00000000E+00  0.00000000E+00  0.00000000E+00
  0.00000000E+00  0.00000000E+00  0.00000000E+00
  0.00000000E+00  0.00000000E+00  0.00000000E+00
  0.00000000E+00  0.00000000E+00  0.00000000E+00
  0.00000000E+00  0.00000000E+00  0.00000000E+00
  0.00000000E+00  0.00000000E+00  0.00000000E+00
  0.00000000E+00  0.00000000E+00  0.00000000E+00
  0.00000000E+00  0.00000000E+00  0.00000000E+00
  0.00000000E+00  0.00000000E+00  0.00000000E+00
  0.00000000E+00  0.00000000E+00  0.00000000E+00
  0.00000000E+00  0.00000000E+00  0.00000000E+00
  0.00000000E+00  0.00000000E+00  0.00000000E+00
  0.00000000E+00  0.00000000E+00  0.00000000E+00
  0.00000000E+00  0.00000000E+00  0.00000000E+00
  0.00000000E+00  0.00000000E+00  0.00000000E+00
  0.00000000E+00  0.00000000E+00  0.00000000E+00
  0.00000000E+00  0.00000000E+00  0.00000000E+00
  0.00000000E+00  0.00000000E+00  0.00000000E+00
  0.00000000E+00  0.00000000E+00  0.00000000E+00
  0.00000000E+00  0.00000000E+00  0.00000000E+00
  0.00000000E+00  0.00000000E+00  0.00000000E+00
  0.00000000E+00  0.00000000E+00  0.00000000E+00
  0.00000000E+00  0.00000000E+00  0.00000000E+00
  0.00000000E+00  0.00000000E+00  0.00000000E+00
  0.00000000E+00  0.00000000E+00  0.00000000E+00
  0.00000000E+00  0.00000000E+00  0.00000000E+00
  0.00000000E+00  0.00000000E+00  0.00000000E+00
  0.00000000E+00  0.00000000E+00  0.00000000E+00
  0.00000000E+00  0.00000000E+00  0.00000000E+00
  0.00000000E+00  0.00000000E+00  0.00000000E+00
  0.00000000E+00  0.00000000E+00  0.00000000E+00
  0.00000000E+00  0.00000000E+00  0.00000000E+00
  0.00000000E+00  0.00000000E+00  0.00000000E+00
  0.00000000E+00  0.00000000E+00  0.00000000E+00
  0.00000000E+00  0.00000000E+00  0.00000000E+00
