Zn_H                                    
   1.00000000000000     
     7.8429056932715540   -0.0004672576725556   -0.0002705896905628
     0.0026957194433081   32.6007435275242869   -3.8806600593460496
     0.0012829329831915   -0.8103494955590035    6.4664051517096235
   C    Zn   H    N    O 
    80     4    32    24    16
Direct
  0.9106046950512621  0.9574353919974783  0.1667677950184938
  0.7231343824587526  0.9513259024042213  0.4145032563500237
  0.9110599704284468  0.7983761031444629  0.8793468016893229
  0.5895529162629387  0.4573848060062389  0.6660600904546499
  0.7756079221213312  0.3044268761534354  0.1308104682744826
  0.2759143824299244  0.8045031319238802  0.1312107130988451
  0.7763448354181151  0.4513618624677278  0.9145986020265582
  0.5885575392448175  0.2983392819306800  0.3790485472057270
  0.2236416606684131  0.4514132221591325  0.4149474515968663
  0.0890813081250954  0.7984178645731035  0.3796611542636015
  0.2761564262052403  0.9513863554510280  0.9146684927295752
  0.2237783388679091  0.3045160303332963  0.6312617637382374
  0.7241565974371795  0.8044562020367536  0.6310291893758375
  0.0888859504169730  0.9574623445790778  0.6667382271290592
  0.4108471555328492  0.2983839208826353  0.8793059229650950
  0.4105343680868998  0.4574331181054916  0.1664294714391090
  0.6871941783857309  0.0305849256642929  0.1187785910391526
  0.8285227128309245  0.0518447426191386  0.4711513377478980
  0.8291919765768228  0.7038763879965444  0.5731181802194030
  0.6712730631650246  0.5518386498641803  0.9709674514823590
  0.6705267086079303  0.2038499491286743  0.0731455327562998
  0.3122231689145210  0.7251766086452562  0.4261950776862662
  0.8125814103493596  0.5305924980072305  0.6185154413660428
  0.8116454455323208  0.2251016309335157  0.4257235712194571
  0.1876666160040230  0.5306683295159473  0.1191003872518266
  0.1710876897856863  0.7039427983699724  0.0736348423885573
  0.1707992870810031  0.0518882658845357  0.9713742651234440
  0.3284630322487843  0.2039291111585868  0.5733679540134418
  0.6881981323252475  0.7251056256046979  0.9258228202945773
  0.3120667481713326  0.0306440849788387  0.6188750623022869
  0.1875958084339544  0.2251678160663744  0.9261609006231026
  0.3291126583929156  0.5519009709884415  0.4714001839084787
  0.6895900210084278  0.0750018117330882  0.1072976663484155
  0.8191851499023244  0.0960773210253905  0.4589074398989155
  0.8198170842426862  0.6596250315233263  0.5852513606661773
  0.6806301694011481  0.5960724056011628  0.9587739982058920
  0.6799355942293417  0.1596053236012054  0.0853439808978820
  0.3100481771028569  0.6807423677866353  0.4373710413351617
  0.8102100105438055  0.5750137985793629  0.6071041084519848
  0.8093953549323629  0.1806734335485984  0.4370313212966863
  0.1902011157145793  0.5750834566396605  0.1075667174978676
  0.1805684751274157  0.6596914746788087  0.0856890013820077
  0.1800680874000093  0.0961203738721821  0.9591189774365532
  0.3191553722398695  0.1596796528779052  0.5855344721030846
  0.6903741022880183  0.6806715872406528  0.9370117839391696
  0.3096161729450913  0.0750651292484079  0.6074248782971168
  0.1897074248528838  0.1807286863245494  0.9372935649425358
  0.3197824481902600  0.5961379185654607  0.4591914011074465
  0.6263295915805003  0.0858610304552201  0.9297863192945570
  0.8799278694819961  0.1276070621540200  0.6241945471583605
  0.8800324504173815  0.6280795383077802  0.4195784350875229
  0.6198507400441997  0.6275951753680218  0.1241064499691689
  0.6197041440174971  0.1280544060358366  0.9197504507016205
  0.3737951467199920  0.6698598995576290  0.6145923575275276
  0.8734280358028457  0.5858796756123752  0.4295777269258139
  0.8731880451125846  0.1697990659900839  0.6142441358747774
  0.1269752899606260  0.5859515273337337  0.9300504446462909
  0.1203446010867069  0.6281448525546978  0.9200537838586698
  0.1193092094270654  0.1276469897883103  0.1244629615218571
  0.3794122619860474  0.1281334832243246  0.4199021295335541
  0.6265682880033339  0.6697887958847346  0.1142213376231851
  0.3728283276385298  0.0859388456623549  0.4299062402384024
  0.1259787945832613  0.1698408704323100  0.1145363723322106
  0.3805161059046824  0.6276669499380176  0.6245125362220065
  0.7840124494077045  0.9790191195989024  0.2988948920675014
  0.7851330842324558  0.7767293086731968  0.7463258614591410
  0.7157776284597617  0.4790144021037435  0.7985896638050036
  0.7146176095363401  0.2767030516729818  0.2461357631919299
  0.2151159963880076  0.7767886507354760  0.2466976488507555
  0.2843767754818458  0.4790768132531014  0.2990890750366049
  0.2153169949069564  0.9790685758172302  0.7989950101960517
  0.2846571716260797  0.2767797688558744  0.7465718951693816
  0.7514128098736705  0.1064985839364070  0.2779587863260389
  0.7523153977368295  0.6491872578575340  0.7663452898376448
  0.7483784507403044  0.6065038598211316  0.7778143146416028
  0.7474570870120587  0.1491779588862414  0.2664255804324611
  0.2481212888731648  0.6492523276495348  0.2667292139526793
  0.2520440384803351  0.6065736817096976  0.2782457674755108
  0.2477714619825520  0.1065578888151322  0.7781342394377191
  0.2516487288967966  0.1492397795401246  0.7666263672341458
  0.0919033254835213  0.8779846816266357  0.0234370523892835
  0.9078867356121734  0.8779840847493290  0.5233962471026885
  0.4079282092196479  0.3779810085238893  0.5233163208810296
  0.5918748827572031  0.3779802351668948  0.0233261405830163
  0.4299382366040021  0.1368693735314892  0.2816442026004609
  0.9161707346309242  0.5607911456942318  0.2989553317578313
  0.9163921972624252  0.1948833483180863  0.7446038865736355
  0.5835238683257984  0.0607668447437106  0.7992365298627675
  0.5833777368738211  0.6948699863908274  0.2446025863853052
  0.5689005634232132  0.6188330008655782  0.2620738193322367
  0.0697799611109673  0.6368840394819415  0.7818419245171100
  0.0684065641162093  0.1188907646636181  0.2624720977634425
  0.9305396125379204  0.6368095328919594  0.2812975451732598
  0.0828575064297752  0.1949229355643851  0.2449792345225106
  0.0841824017690058  0.5608604219263640  0.7994608225463367
  0.4169399785058516  0.6949427297129915  0.7449927761521948
  0.4314308063527648  0.6189109991998194  0.7624950339136589
  0.5691512547344786  0.1367855306061827  0.7815074300360365
  0.9308780347928263  0.1188510491313366  0.7621656911006767
  0.4156040071818339  0.0608511758075352  0.2992664635049991
  0.8723390743603616  0.4558108253263029  0.0378932531300720
  0.1277046966284843  0.3001003733128087  0.5080706260860239
  0.4885380734336309  0.4688388928782814  0.0552139668200411
  0.0111884516996454  0.7869808464153465  0.4908649239863294
  0.3723371143192580  0.9558086829778105  0.0377321601210951
  0.4888474800340745  0.2869224823978627  0.9902955612085975
  0.9888525741106164  0.9688817489203529  0.0559205246352619
  0.6282084805186443  0.8000181751455742  0.5076948970860116
  0.0107397773927431  0.9688885148962783  0.5557468614555603
  0.5116594478522245  0.4687827897094650  0.5547499141688093
  0.8716014048413285  0.2999960086533235  0.0074760871625799
  0.6267288162084554  0.9557288244402500  0.5373520753681476
  0.5105249236716318  0.2868961892734276  0.4900911902643585
  0.1276118859655568  0.4558578060907834  0.5382370304963189
  0.3718746626540366  0.8000712104911329  0.0078340435777235
  0.9890659506650579  0.7869348932405273  0.9904110733539824
  0.9273777349296992  0.9191810856111786  0.2010243725215872
  0.8113824609824363  0.9148656238184785  0.3526510679755432
  0.9274730416907104  0.8366919263081343  0.8457015236254151
  0.5726539956356973  0.4191499627671078  0.7005351733725647
  0.6879115083046941  0.3409504937517198  0.1934799842763368
  0.1880972466560635  0.8410075750724744  0.1937691694216213
  0.6882528006858024  0.4148874351548670  0.8526281522026764
  0.5721430433728614  0.3366539972539115  0.3453922547574990
  0.3115767480247911  0.4149157913591637  0.3527594733054258
  0.0724576008891020  0.8367127946577995  0.3458243317305403
  0.1880629021494187  0.9149119564645787  0.8527196122796852
  0.3116849940047572  0.3410080820881802  0.6937217345896158
  0.8117763037030912  0.8409843625119464  0.6937366765272230
  0.0721687290236090  0.9192084221037433  0.7010080995178143
  0.4274691911789503  0.3366829428101994  0.8455284961341576
  0.4272452721767053  0.4191757953980542  0.2006866788121329
  0.7506506292682218  0.0219722823076793  0.3067260844664972
  0.7518232574193249  0.7337561001347055  0.7380202346893796
  0.7490935302349584  0.5219685010380886  0.8064447266640471
  0.7479656269202124  0.2337358710750692  0.2379292138247777
  0.2485292312696359  0.7338214208983374  0.2384419771792210
  0.2511748776528577  0.5220393832395516  0.3069914288521147
  0.2486300516497479  0.0220220337043884  0.8068432230897997
  0.2511920545401978  0.2338157596927175  0.7383340448987141
  0.6313632982371402  0.0025108314323674  0.9745851138423376
  0.8998140599851183  0.0413821632647071  0.6189516628866514
  0.9000655548404026  0.7143379470067046  0.4250099551157192
  0.6000153731988149  0.5413720481701105  0.1188128559802308
  0.5996073389245993  0.2143047683756336  0.9250765433869788
  0.3680231060641859  0.7532392303745326  0.5704780407860710
  0.8684572406585289  0.5025239084417450  0.4742804555514937
  0.8675910068828188  0.2531632437768749  0.5699029330250909
  0.1316202329639822  0.5026089499127124  0.9750035158981518
  0.1000630313553472  0.7144132231917553  0.9256817859288091
  0.0996446648433107  0.0414142422119710  0.1192667337651159
  0.3992409003868431  0.2143931467589510  0.4252079814245207
  0.6323616870116169  0.7531645319208380  0.0701284621808256
  0.3679927866281858  0.0025771427396890  0.4746717658549002
  0.1319282763407159  0.2532326611866225  0.0705647630969111
  0.4004284979376251  0.5414288944110410  0.6191561727229384
 
  0.00000000E+00  0.00000000E+00  0.00000000E+00
  0.00000000E+00  0.00000000E+00  0.00000000E+00
  0.00000000E+00  0.00000000E+00  0.00000000E+00
  0.00000000E+00  0.00000000E+00  0.00000000E+00
  0.00000000E+00  0.00000000E+00  0.00000000E+00
  0.00000000E+00  0.00000000E+00  0.00000000E+00
  0.00000000E+00  0.00000000E+00  0.00000000E+00
  0.00000000E+00  0.00000000E+00  0.00000000E+00
  0.00000000E+00  0.00000000E+00  0.00000000E+00
  0.00000000E+00  0.00000000E+00  0.00000000E+00
  0.00000000E+00  0.00000000E+00  0.00000000E+00
  0.00000000E+00  0.00000000E+00  0.00000000E+00
  0.00000000E+00  0.00000000E+00  0.00000000E+00
  0.00000000E+00  0.00000000E+00  0.00000000E+00
  0.00000000E+00  0.00000000E+00  0.00000000E+00
  0.00000000E+00  0.00000000E+00  0.00000000E+00
  0.00000000E+00  0.00000000E+00  0.00000000E+00
  0.00000000E+00  0.00000000E+00  0.00000000E+00
  0.00000000E+00  0.00000000E+00  0.00000000E+00
  0.00000000E+00  0.00000000E+00  0.00000000E+00
  0.00000000E+00  0.00000000E+00  0.00000000E+00
  0.00000000E+00  0.00000000E+00  0.00000000E+00
  0.00000000E+00  0.00000000E+00  0.00000000E+00
  0.00000000E+00  0.00000000E+00  0.00000000E+00
  0.00000000E+00  0.00000000E+00  0.00000000E+00
  0.00000000E+00  0.00000000E+00  0.00000000E+00
  0.00000000E+00  0.00000000E+00  0.00000000E+00
  0.00000000E+00  0.00000000E+00  0.00000000E+00
  0.00000000E+00  0.00000000E+00  0.00000000E+00
  0.00000000E+00  0.00000000E+00  0.00000000E+00
  0.00000000E+00  0.00000000E+00  0.00000000E+00
  0.00000000E+00  0.00000000E+00  0.00000000E+00
  0.00000000E+00  0.00000000E+00  0.00000000E+00
  0.00000000E+00  0.00000000E+00  0.00000000E+00
  0.00000000E+00  0.00000000E+00  0.00000000E+00
  0.00000000E+00  0.00000000E+00  0.00000000E+00
  0.00000000E+00  0.00000000E+00  0.00000000E+00
  0.00000000E+00  0.00000000E+00  0.00000000E+00
  0.00000000E+00  0.00000000E+00  0.00000000E+00
  0.00000000E+00  0.00000000E+00  0.00000000E+00
  0.00000000E+00  0.00000000E+00  0.00000000E+00
  0.00000000E+00  0.00000000E+00  0.00000000E+00
  0.00000000E+00  0.00000000E+00  0.00000000E+00
  0.00000000E+00  0.00000000E+00  0.00000000E+00
  0.00000000E+00  0.00000000E+00  0.00000000E+00
  0.00000000E+00  0.00000000E+00  0.00000000E+00
  0.00000000E+00  0.00000000E+00  0.00000000E+00
  0.00000000E+00  0.00000000E+00  0.00000000E+00
  0.00000000E+00  0.00000000E+00  0.00000000E+00
  0.00000000E+00  0.00000000E+00  0.00000000E+00
  0.00000000E+00  0.00000000E+00  0.00000000E+00
  0.00000000E+00  0.00000000E+00  0.00000000E+00
  0.00000000E+00  0.00000000E+00  0.00000000E+00
  0.00000000E+00  0.00000000E+00  0.00000000E+00
  0.00000000E+00  0.00000000E+00  0.00000000E+00
  0.00000000E+00  0.00000000E+00  0.00000000E+00
  0.00000000E+00  0.00000000E+00  0.00000000E+00
  0.00000000E+00  0.00000000E+00  0.00000000E+00
  0.00000000E+00  0.00000000E+00  0.00000000E+00
  0.00000000E+00  0.00000000E+00  0.00000000E+00
  0.00000000E+00  0.00000000E+00  0.00000000E+00
  0.00000000E+00  0.00000000E+00  0.00000000E+00
  0.00000000E+00  0.00000000E+00  0.00000000E+00
  0.00000000E+00  0.00000000E+00  0.00000000E+00
  0.00000000E+00  0.00000000E+00  0.00000000E+00
  0.00000000E+00  0.00000000E+00  0.00000000E+00
  0.00000000E+00  0.00000000E+00  0.00000000E+00
  0.00000000E+00  0.00000000E+00  0.00000000E+00
  0.00000000E+00  0.00000000E+00  0.00000000E+00
  0.00000000E+00  0.00000000E+00  0.00000000E+00
  0.00000000E+00  0.00000000E+00  0.00000000E+00
  0.00000000E+00  0.00000000E+00  0.00000000E+00
  0.00000000E+00  0.00000000E+00  0.00000000E+00
  0.00000000E+00  0.00000000E+00  0.00000000E+00
  0.00000000E+00  0.00000000E+00  0.00000000E+00
  0.00000000E+00  0.00000000E+00  0.00000000E+00
  0.00000000E+00  0.00000000E+00  0.00000000E+00
  0.00000000E+00  0.00000000E+00  0.00000000E+00
  0.00000000E+00  0.00000000E+00  0.00000000E+00
  0.00000000E+00  0.00000000E+00  0.00000000E+00
  0.00000000E+00  0.00000000E+00  0.00000000E+00
  0.00000000E+00  0.00000000E+00  0.00000000E+00
  0.00000000E+00  0.00000000E+00  0.00000000E+00
  0.00000000E+00  0.00000000E+00  0.00000000E+00
  0.00000000E+00  0.00000000E+00  0.00000000E+00
  0.00000000E+00  0.00000000E+00  0.00000000E+00
  0.00000000E+00  0.00000000E+00  0.00000000E+00
  0.00000000E+00  0.00000000E+00  0.00000000E+00
  0.00000000E+00  0.00000000E+00  0.00000000E+00
  0.00000000E+00  0.00000000E+00  0.00000000E+00
  0.00000000E+00  0.00000000E+00  0.00000000E+00
  0.00000000E+00  0.00000000E+00  0.00000000E+00
  0.00000000E+00  0.00000000E+00  0.00000000E+00
  0.00000000E+00  0.00000000E+00  0.00000000E+00
  0.00000000E+00  0.00000000E+00  0.00000000E+00
  0.00000000E+00  0.00000000E+00  0.00000000E+00
  0.00000000E+00  0.00000000E+00  0.00000000E+00
  0.00000000E+00  0.00000000E+00  0.00000000E+00
  0.00000000E+00  0.00000000E+00  0.00000000E+00
  0.00000000E+00  0.00000000E+00  0.00000000E+00
  0.00000000E+00  0.00000000E+00  0.00000000E+00
  0.00000000E+00  0.00000000E+00  0.00000000E+00
  0.00000000E+00  0.00000000E+00  0.00000000E+00
  0.00000000E+00  0.00000000E+00  0.00000000E+00
  0.00000000E+00  0.00000000E+00  0.00000000E+00
  0.00000000E+00  0.00000000E+00  0.00000000E+00
  0.00000000E+00  0.00000000E+00  0.00000000E+00
  0.00000000E+00  0.00000000E+00  0.00000000E+00
  0.00000000E+00  0.00000000E+00  0.00000000E+00
  0.00000000E+00  0.00000000E+00  0.00000000E+00
  0.00000000E+00  0.00000000E+00  0.00000000E+00
  0.00000000E+00  0.00000000E+00  0.00000000E+00
  0.00000000E+00  0.00000000E+00  0.00000000E+00
  0.00000000E+00  0.00000000E+00  0.00000000E+00
  0.00000000E+00  0.00000000E+00  0.00000000E+00
  0.00000000E+00  0.00000000E+00  0.00000000E+00
  0.00000000E+00  0.00000000E+00  0.00000000E+00
  0.00000000E+00  0.00000000E+00  0.00000000E+00
  0.00000000E+00  0.00000000E+00  0.00000000E+00
  0.00000000E+00  0.00000000E+00  0.00000000E+00
  0.00000000E+00  0.00000000E+00  0.00000000E+00
  0.00000000E+00  0.00000000E+00  0.00000000E+00
  0.00000000E+00  0.00000000E+00  0.00000000E+00
  0.00000000E+00  0.00000000E+00  0.00000000E+00
  0.00000000E+00  0.00000000E+00  0.00000000E+00
  0.00000000E+00  0.00000000E+00  0.00000000E+00
  0.00000000E+00  0.00000000E+00  0.00000000E+00
  0.00000000E+00  0.00000000E+00  0.00000000E+00
  0.00000000E+00  0.00000000E+00  0.00000000E+00
  0.00000000E+00  0.00000000E+00  0.00000000E+00
  0.00000000E+00  0.00000000E+00  0.00000000E+00
  0.00000000E+00  0.00000000E+00  0.00000000E+00
  0.00000000E+00  0.00000000E+00  0.00000000E+00
  0.00000000E+00  0.00000000E+00  0.00000000E+00
  0.00000000E+00  0.00000000E+00  0.00000000E+00
  0.00000000E+00  0.00000000E+00  0.00000000E+00
  0.00000000E+00  0.00000000E+00  0.00000000E+00
  0.00000000E+00  0.00000000E+00  0.00000000E+00
  0.00000000E+00  0.00000000E+00  0.00000000E+00
  0.00000000E+00  0.00000000E+00  0.00000000E+00
  0.00000000E+00  0.00000000E+00  0.00000000E+00
  0.00000000E+00  0.00000000E+00  0.00000000E+00
  0.00000000E+00  0.00000000E+00  0.00000000E+00
  0.00000000E+00  0.00000000E+00  0.00000000E+00
  0.00000000E+00  0.00000000E+00  0.00000000E+00
  0.00000000E+00  0.00000000E+00  0.00000000E+00
  0.00000000E+00  0.00000000E+00  0.00000000E+00
  0.00000000E+00  0.00000000E+00  0.00000000E+00
  0.00000000E+00  0.00000000E+00  0.00000000E+00
  0.00000000E+00  0.00000000E+00  0.00000000E+00
  0.00000000E+00  0.00000000E+00  0.00000000E+00
  0.00000000E+00  0.00000000E+00  0.00000000E+00
  0.00000000E+00  0.00000000E+00  0.00000000E+00
  0.00000000E+00  0.00000000E+00  0.00000000E+00
  0.00000000E+00  0.00000000E+00  0.00000000E+00
  0.00000000E+00  0.00000000E+00  0.00000000E+00
