CoH_exp12                               
   1.00000000000000     
    24.6020509903434181   -0.0004457620386151    0.0019381485316000
     0.0006183752040907   24.7488427356850949    2.0012713117209513
     0.0011448457922177   -0.1226937469437621    7.3574234035710200
   C    Co   H    N    O 
    80     4    32    24    16
Direct
  0.9101023337718743  0.9685084765647431  0.1282328159339912
  0.9249804337677574  0.9774823946925650  0.4229445013544506
  0.9105048074827522  0.8119758922046074  0.9256022150532246
  0.5899012654314859  0.4683195453760689  0.6279781444252635
  0.5745926187636812  0.3032308537211748  0.1303724051473623
  0.0746641565388231  0.8032980414552924  0.1304264874252468
  0.5749944273903083  0.4773230416047056  0.9226662167206001
  0.5893465697115943  0.3120920789869501  0.4252331063241428
  0.4246903521077954  0.4773147031830760  0.4222035629096368
  0.0893024938465814  0.8119791799652276  0.4254514690983626
  0.0750395846505185  0.9773509277523189  0.9226078867278247
  0.4251583842051332  0.3033023606111200  0.6300158117558752
  0.9252679676393356  0.8032137288970063  0.6306814677719785
  0.0900528325938836  0.9681340059243624  0.6280833297011625
  0.4105359526182042  0.3118965708325021  0.9251135187807975
  0.4098199924271242  0.4680729574153588  0.1276352509405569
  0.8189769286152924  0.0406598878280704  0.4340291801484852
  0.8468545698241456  0.0743084620614880  0.1188968410308888
  0.8473606994607437  0.7060506753948133  0.9350960195987525
  0.6532298597082971  0.5740654489367714  0.6186220685273511
  0.6526595910036832  0.2063132427234038  0.4350061885524568
  0.1801832234596006  0.7395594896210369  0.1192162131843517
  0.6810759515155880  0.5403569410846245  0.9336880154507767
  0.6801219086741739  0.2395366538096866  0.1190766383876394
  0.3186146199096029  0.5402810602767758  0.4331257045233841
  0.1525558988310749  0.7061720794752020  0.4347911213030784
  0.1533098957308567  0.0739388561213801  0.6183314504184665
  0.3473825647025564  0.2060551570772304  0.9344247275405309
  0.8197810994875852  0.7394576100310530  0.6195082354188983
  0.1811575042267108  0.0403211120436566  0.9334973665817827
  0.3196889271290360  0.2394907567049955  0.6189851809604505
  0.3461607659028587  0.5736289263635683  0.1173352665309082
  0.7767436765042177  0.0835235213766623  0.4311120914885436
  0.8036833632091245  0.1161094565217624  0.1220036743954083
  0.8044365464168948  0.6639901269020214  0.9314214147681525
  0.6963787784293487  0.6158851941382721  0.6218865185830040
  0.6955728503605911  0.1642601084278752  0.4313891119905975
  0.2222485780370249  0.6965479946787880  0.1218209310078748
  0.7232883420635190  0.5832343593741243  0.9309060702237062
  0.7223513145646336  0.1966836551019853  0.1220417664492146
  0.2763682124848899  0.5831272977755830  0.4303076107988275
  0.1954176944632380  0.6640700304380616  0.4310510511938475
  0.1963950332534381  0.1158107256472860  0.6215836709670128
  0.3044665947977734  0.1639957418808748  0.9308819735228511
  0.7776469775759978  0.6965082343052700  0.6221919358131558
  0.2233761793420186  0.0831889433509687  0.9305937008326524
  0.2775646224691783  0.1965314839747805  0.6217789891750698
  0.3031875521193328  0.6156096251987790  0.1209610257001827
  0.7432108329968301  0.0879728003096716  0.5817257662671409
  0.7962334067252499  0.1521263709793885  0.9712791855052458
  0.7971319615445225  0.6277948590316953  0.0817632447114036
  0.7038016954525617  0.6519740028557663  0.4713409628573046
  0.7028546016493209  0.1280950941243901  0.5818006601965564
  0.2555784669456997  0.6919386052303622  0.9708095756237256
  0.7567826273699794  0.5876731228274465  0.0815572845600485
  0.7557507040853437  0.1921240958621198  0.9711648498717551
  0.2429248961426609  0.5876522397715291  0.5811105624333237
  0.2026421718050528  0.6278466270472762  0.5813451796200297
  0.2037338485450704  0.1519256842510757  0.4710488000832171
  0.2972263601603373  0.1278022122357001  0.0812551120391092
  0.7442477089237016  0.6920006891763251  0.4713449273566184
  0.2568971627605521  0.0876532974137803  0.0811732041326891
  0.2441257598202071  0.1920095850331975  0.4710232579531208
  0.2958531681196632  0.6517444050588850  0.9704944944622724
  0.8930201047558128  0.9975211845474092  0.2757523636963413
  0.8935094376301222  0.7829128059045090  0.7781074562707531
  0.6069936674351197  0.4973220685814539  0.7754709070619725
  0.6063929595699094  0.2830226234043138  0.2777706390738643
  0.1064055931318393  0.7830017552166169  0.2778445764816837
  0.3926560280822642  0.4971507388567176  0.2748916847258656
  0.1070996690469528  0.9972232830694665  0.7754034215871144
  0.3934550613280763  0.2829413904580420  0.7774726899644975
  0.7700642526565034  0.1198072813483080  0.2766280705988535
  0.7708994408915046  0.6602344011847165  0.7766914262255185
  0.7299822186506617  0.6195435072928603  0.7764986469893458
  0.7291312893197173  0.1604827875096362  0.2766879605198227
  0.2289275299127027  0.6602450758371816  0.2762540629230870
  0.2696983229854482  0.6194200149493270  0.2758466042079277
  0.2300149798314806  0.1195038812658566  0.7761549791767237
  0.2708968895874193  0.1602313960061892  0.7762536150497255
  0.9956588734251426  0.8905189284849229  0.0266675641171474
  0.0042001242707315  0.8905153743170402  0.5266063526925819
  0.5041424350832386  0.3905382553239818  0.5263771355600042
  0.4956354825867990  0.3904405739507979  0.0263104892779182
  0.3234988180720251  0.1313923710250648  0.1991069494189190
  0.7509488745296764  0.5593648238158551  0.1993279413377493
  0.7497298088568058  0.2202393020282898  0.8530151451268040
  0.7490397013847172  0.0596859916441019  0.6995486460309550
  0.7502081977363417  0.7201922611474458  0.3533493967407608
  0.6775275378591985  0.6484317607513645  0.3534745310568539
  0.1763719033394295  0.6314558468626288  0.6992342967517899
  0.1774434708760779  0.1483526281079861  0.3532250284182865
  0.8233836128628340  0.6313470583948941  0.1996632715781672
  0.2500261365144638  0.2202315423450543  0.3530664143955065
  0.2487581166066448  0.5594023795262686  0.6990296342101061
  0.2496599311663203  0.7201669340303027  0.8529011504340076
  0.3220762779958548  0.6481105938551437  0.8524912371059372
  0.6765807269309789  0.1316792507084301  0.6996874708538598
  0.8224911661786933  0.1485267297153854  0.8533418348349926
  0.2510928822104646  0.0593526076247102  0.1989929366775769
  0.5751911539094152  0.4878224312872490  0.0633008053854667
  0.4248922837247591  0.2929136850978864  0.4892905907448437
  0.3965875000671488  0.4710407357980415  0.9869202976051241
  0.1023522337455844  0.8086864863751302  0.5663422349357461
  0.0751846269535363  0.9879768907782065  0.0631017404807537
  0.3974915339703387  0.3085498700599274  0.0660330112023857
  0.8968836337635935  0.9716187993370937  0.9874975486336410
  0.9250869154474444  0.7927510344801831  0.4900188270402239
  0.1033587183369988  0.9711120191942513  0.4874239388961144
  0.6031710442212272  0.4713726996120684  0.4872753437024286
  0.5747716364221134  0.2927404255671249  0.9897406441508565
  0.9248194668633047  0.9880157346602090  0.5635418587346521
  0.6024634631259644  0.3089007308240781  0.5660487139382866
  0.4244745598357866  0.4879205722144064  0.5627186558076289
  0.0748946482624717  0.7928880799489093  0.9897321462149478
  0.8973843996080078  0.8087201621667006  0.0664492326766464
  0.9495232430559781  0.9335148826650865  0.1844351646066613
  0.9587583424210351  0.9391262810203926  0.3665281087457615
  0.9496795874352131  0.8472402567099877  0.8691568735878121
  0.5504143099097547  0.4333889295842823  0.6841630347469803
  0.5409555488672311  0.3417257601035857  0.1866445677098625
  0.0410114951579459  0.8417657423055402  0.1867950108084955
  0.5411660269656124  0.4390153477253307  0.8662454417317278
  0.5501141814924821  0.3472749177463044  0.3687897295731020
  0.4585915567713883  0.4390238032016782  0.3660760226269915
  0.0500984591266374  0.8471995444373022  0.3690360875538303
  0.0412122079127784  0.9390184001594619  0.8663760691497870
  0.4587771375802490  0.3417846380562324  0.6864167890356896
  0.9588444726612551  0.8417544217289787  0.6869544731659261
  0.0505324944974817  0.9332618783556370  0.6843985052982973
  0.4496984359198777  0.3471706459450985  0.8686986522286446
  0.4493607083904934  0.4332528963462394  0.1840741571517341
  0.8521420584741151  0.0382769210839200  0.2761757251041530
  0.8528071631928356  0.7419710141302573  0.7776014814350702
  0.6478921494077667  0.5380462835713828  0.7758958367034978
  0.6471474883987369  0.2421340121224205  0.2773041369093292
  0.1471445640540807  0.7420939365670307  0.2773157578351046
  0.3516933016319044  0.5378233547098219  0.2750483932037113
  0.1479950286768670  0.0379540896305102  0.7756933744274761
  0.3527537443680728  0.2420058486605896  0.7769873006084111
  0.8252542582225431  0.0086329099602054  0.5665231705695177
  0.8766847780412164  0.0707052990414638  0.9863786929313889
  0.8768490663884947  0.7099281060560116  0.0682958137651255
  0.6234543934184060  0.5704509459026355  0.4860006560170405
  0.6232220915226634  0.2102802610174876  0.5683329381744855
  0.1739541397466056  0.7715933730920312  0.9867179588680912
  0.6748203884974586  0.5082484885911711  0.0659856568551405
  0.6737337487534418  0.2714305834638679  0.9862999286473695
  0.3250112299554573  0.5083197051081001  0.5657161851204506
  0.1230494463953775  0.7100722564362130  0.5679790590309963
  0.1235574159202315  0.0702475888171747  0.4857012502975948
  0.3769421175321312  0.2099126537906386  0.0674652258255364
  0.8260451206975645  0.7714995204993969  0.4870464085492969
  0.1748743965272723  0.0082668878299472  0.0659184739423964
  0.3259287883046937  0.2715218817750724  0.4864737418310625
  0.3756772076416794  0.5697464344394731  0.9841693249290913
 
  0.00000000E+00  0.00000000E+00  0.00000000E+00
  0.00000000E+00  0.00000000E+00  0.00000000E+00
  0.00000000E+00  0.00000000E+00  0.00000000E+00
  0.00000000E+00  0.00000000E+00  0.00000000E+00
  0.00000000E+00  0.00000000E+00  0.00000000E+00
  0.00000000E+00  0.00000000E+00  0.00000000E+00
  0.00000000E+00  0.00000000E+00  0.00000000E+00
  0.00000000E+00  0.00000000E+00  0.00000000E+00
  0.00000000E+00  0.00000000E+00  0.00000000E+00
  0.00000000E+00  0.00000000E+00  0.00000000E+00
  0.00000000E+00  0.00000000E+00  0.00000000E+00
  0.00000000E+00  0.00000000E+00  0.00000000E+00
  0.00000000E+00  0.00000000E+00  0.00000000E+00
  0.00000000E+00  0.00000000E+00  0.00000000E+00
  0.00000000E+00  0.00000000E+00  0.00000000E+00
  0.00000000E+00  0.00000000E+00  0.00000000E+00
  0.00000000E+00  0.00000000E+00  0.00000000E+00
  0.00000000E+00  0.00000000E+00  0.00000000E+00
  0.00000000E+00  0.00000000E+00  0.00000000E+00
  0.00000000E+00  0.00000000E+00  0.00000000E+00
  0.00000000E+00  0.00000000E+00  0.00000000E+00
  0.00000000E+00  0.00000000E+00  0.00000000E+00
  0.00000000E+00  0.00000000E+00  0.00000000E+00
  0.00000000E+00  0.00000000E+00  0.00000000E+00
  0.00000000E+00  0.00000000E+00  0.00000000E+00
  0.00000000E+00  0.00000000E+00  0.00000000E+00
  0.00000000E+00  0.00000000E+00  0.00000000E+00
  0.00000000E+00  0.00000000E+00  0.00000000E+00
  0.00000000E+00  0.00000000E+00  0.00000000E+00
  0.00000000E+00  0.00000000E+00  0.00000000E+00
  0.00000000E+00  0.00000000E+00  0.00000000E+00
  0.00000000E+00  0.00000000E+00  0.00000000E+00
  0.00000000E+00  0.00000000E+00  0.00000000E+00
  0.00000000E+00  0.00000000E+00  0.00000000E+00
  0.00000000E+00  0.00000000E+00  0.00000000E+00
  0.00000000E+00  0.00000000E+00  0.00000000E+00
  0.00000000E+00  0.00000000E+00  0.00000000E+00
  0.00000000E+00  0.00000000E+00  0.00000000E+00
  0.00000000E+00  0.00000000E+00  0.00000000E+00
  0.00000000E+00  0.00000000E+00  0.00000000E+00
  0.00000000E+00  0.00000000E+00  0.00000000E+00
  0.00000000E+00  0.00000000E+00  0.00000000E+00
  0.00000000E+00  0.00000000E+00  0.00000000E+00
  0.00000000E+00  0.00000000E+00  0.00000000E+00
  0.00000000E+00  0.00000000E+00  0.00000000E+00
  0.00000000E+00  0.00000000E+00  0.00000000E+00
  0.00000000E+00  0.00000000E+00  0.00000000E+00
  0.00000000E+00  0.00000000E+00  0.00000000E+00
  0.00000000E+00  0.00000000E+00  0.00000000E+00
  0.00000000E+00  0.00000000E+00  0.00000000E+00
  0.00000000E+00  0.00000000E+00  0.00000000E+00
  0.00000000E+00  0.00000000E+00  0.00000000E+00
  0.00000000E+00  0.00000000E+00  0.00000000E+00
  0.00000000E+00  0.00000000E+00  0.00000000E+00
  0.00000000E+00  0.00000000E+00  0.00000000E+00
  0.00000000E+00  0.00000000E+00  0.00000000E+00
  0.00000000E+00  0.00000000E+00  0.00000000E+00
  0.00000000E+00  0.00000000E+00  0.00000000E+00
  0.00000000E+00  0.00000000E+00  0.00000000E+00
  0.00000000E+00  0.00000000E+00  0.00000000E+00
  0.00000000E+00  0.00000000E+00  0.00000000E+00
  0.00000000E+00  0.00000000E+00  0.00000000E+00
  0.00000000E+00  0.00000000E+00  0.00000000E+00
  0.00000000E+00  0.00000000E+00  0.00000000E+00
  0.00000000E+00  0.00000000E+00  0.00000000E+00
  0.00000000E+00  0.00000000E+00  0.00000000E+00
  0.00000000E+00  0.00000000E+00  0.00000000E+00
  0.00000000E+00  0.00000000E+00  0.00000000E+00
  0.00000000E+00  0.00000000E+00  0.00000000E+00
  0.00000000E+00  0.00000000E+00  0.00000000E+00
  0.00000000E+00  0.00000000E+00  0.00000000E+00
  0.00000000E+00  0.00000000E+00  0.00000000E+00
  0.00000000E+00  0.00000000E+00  0.00000000E+00
  0.00000000E+00  0.00000000E+00  0.00000000E+00
  0.00000000E+00  0.00000000E+00  0.00000000E+00
  0.00000000E+00  0.00000000E+00  0.00000000E+00
  0.00000000E+00  0.00000000E+00  0.00000000E+00
  0.00000000E+00  0.00000000E+00  0.00000000E+00
  0.00000000E+00  0.00000000E+00  0.00000000E+00
  0.00000000E+00  0.00000000E+00  0.00000000E+00
  0.00000000E+00  0.00000000E+00  0.00000000E+00
  0.00000000E+00  0.00000000E+00  0.00000000E+00
  0.00000000E+00  0.00000000E+00  0.00000000E+00
  0.00000000E+00  0.00000000E+00  0.00000000E+00
  0.00000000E+00  0.00000000E+00  0.00000000E+00
  0.00000000E+00  0.00000000E+00  0.00000000E+00
  0.00000000E+00  0.00000000E+00  0.00000000E+00
  0.00000000E+00  0.00000000E+00  0.00000000E+00
  0.00000000E+00  0.00000000E+00  0.00000000E+00
  0.00000000E+00  0.00000000E+00  0.00000000E+00
  0.00000000E+00  0.00000000E+00  0.00000000E+00
  0.00000000E+00  0.00000000E+00  0.00000000E+00
  0.00000000E+00  0.00000000E+00  0.00000000E+00
  0.00000000E+00  0.00000000E+00  0.00000000E+00
  0.00000000E+00  0.00000000E+00  0.00000000E+00
  0.00000000E+00  0.00000000E+00  0.00000000E+00
  0.00000000E+00  0.00000000E+00  0.00000000E+00
  0.00000000E+00  0.00000000E+00  0.00000000E+00
  0.00000000E+00  0.00000000E+00  0.00000000E+00
  0.00000000E+00  0.00000000E+00  0.00000000E+00
  0.00000000E+00  0.00000000E+00  0.00000000E+00
  0.00000000E+00  0.00000000E+00  0.00000000E+00
  0.00000000E+00  0.00000000E+00  0.00000000E+00
  0.00000000E+00  0.00000000E+00  0.00000000E+00
  0.00000000E+00  0.00000000E+00  0.00000000E+00
  0.00000000E+00  0.00000000E+00  0.00000000E+00
  0.00000000E+00  0.00000000E+00  0.00000000E+00
  0.00000000E+00  0.00000000E+00  0.00000000E+00
  0.00000000E+00  0.00000000E+00  0.00000000E+00
  0.00000000E+00  0.00000000E+00  0.00000000E+00
  0.00000000E+00  0.00000000E+00  0.00000000E+00
  0.00000000E+00  0.00000000E+00  0.00000000E+00
  0.00000000E+00  0.00000000E+00  0.00000000E+00
  0.00000000E+00  0.00000000E+00  0.00000000E+00
  0.00000000E+00  0.00000000E+00  0.00000000E+00
  0.00000000E+00  0.00000000E+00  0.00000000E+00
  0.00000000E+00  0.00000000E+00  0.00000000E+00
  0.00000000E+00  0.00000000E+00  0.00000000E+00
  0.00000000E+00  0.00000000E+00  0.00000000E+00
  0.00000000E+00  0.00000000E+00  0.00000000E+00
  0.00000000E+00  0.00000000E+00  0.00000000E+00
  0.00000000E+00  0.00000000E+00  0.00000000E+00
  0.00000000E+00  0.00000000E+00  0.00000000E+00
  0.00000000E+00  0.00000000E+00  0.00000000E+00
  0.00000000E+00  0.00000000E+00  0.00000000E+00
  0.00000000E+00  0.00000000E+00  0.00000000E+00
  0.00000000E+00  0.00000000E+00  0.00000000E+00
  0.00000000E+00  0.00000000E+00  0.00000000E+00
  0.00000000E+00  0.00000000E+00  0.00000000E+00
  0.00000000E+00  0.00000000E+00  0.00000000E+00
  0.00000000E+00  0.00000000E+00  0.00000000E+00
  0.00000000E+00  0.00000000E+00  0.00000000E+00
  0.00000000E+00  0.00000000E+00  0.00000000E+00
  0.00000000E+00  0.00000000E+00  0.00000000E+00
  0.00000000E+00  0.00000000E+00  0.00000000E+00
  0.00000000E+00  0.00000000E+00  0.00000000E+00
  0.00000000E+00  0.00000000E+00  0.00000000E+00
  0.00000000E+00  0.00000000E+00  0.00000000E+00
  0.00000000E+00  0.00000000E+00  0.00000000E+00
  0.00000000E+00  0.00000000E+00  0.00000000E+00
  0.00000000E+00  0.00000000E+00  0.00000000E+00
  0.00000000E+00  0.00000000E+00  0.00000000E+00
  0.00000000E+00  0.00000000E+00  0.00000000E+00
  0.00000000E+00  0.00000000E+00  0.00000000E+00
  0.00000000E+00  0.00000000E+00  0.00000000E+00
  0.00000000E+00  0.00000000E+00  0.00000000E+00
  0.00000000E+00  0.00000000E+00  0.00000000E+00
  0.00000000E+00  0.00000000E+00  0.00000000E+00
  0.00000000E+00  0.00000000E+00  0.00000000E+00
  0.00000000E+00  0.00000000E+00  0.00000000E+00
  0.00000000E+00  0.00000000E+00  0.00000000E+00
  0.00000000E+00  0.00000000E+00  0.00000000E+00
  0.00000000E+00  0.00000000E+00  0.00000000E+00
  0.00000000E+00  0.00000000E+00  0.00000000E+00
  0.00000000E+00  0.00000000E+00  0.00000000E+00
  0.00000000E+00  0.00000000E+00  0.00000000E+00
