Zn_H                                    
   1.00000000000000     
     9.8909009250767603   -0.0001148135722235   -0.0004843336555282
     0.0040152902452851   32.7195064665793254   -2.6694477417752744
     0.0010468392845892   -0.5250995376538395    6.8353979464252550
   C    Zn   H    N    O 
    80     4    32    24    16
Direct
  0.9022373347863493  0.9574110781725835  0.1461728874210948
  0.7979779252090893  0.9519595431962244  0.4286323754233052
  0.9028229553087712  0.7984038544569003  0.8993384830063178
  0.5975156293088091  0.4573947234449918  0.6456428465467212
  0.7012019594808265  0.3036891481638051  0.1161333016295671
  0.1997098636991694  0.8037833806350179  0.1167065746531435
  0.7017177393989869  0.4519403274297105  0.9280983920581889
  0.5971001773782731  0.2983966429332767  0.3988684044215063
  0.3004857073378062  0.4520949990152161  0.4281433633394727
  0.0956495388508927  0.7984171817564416  0.3993883700345080
  0.1992967671567314  0.9521250411489817  0.9286087771635252
  0.3001512624263256  0.3037475897037396  0.6162177631636254
  0.7986064226789722  0.8037282068079321  0.6167549040222511
  0.0951695935913790  0.9574397251504863  0.6459052826539065
  0.4042134437347684  0.2984002830785712  0.8988941537662782
  0.4043929287239436  0.4574000356534000  0.1452674437416732
  0.7123134190688063  0.0320141601774537  0.1406439283004488
  0.8444124045420054  0.0501337028784121  0.4547404377579625
  0.8454638423616814  0.7055861215172641  0.5908021315532039
  0.6553239435123857  0.5501125478034794  0.9544982782398677
  0.6543798074836573  0.2055515536996921  0.0905433814504235
  0.2854845903542369  0.7238131302359960  0.4054253090321396
  0.7873884514829896  0.5320256513808914  0.6403227786314076
  0.7864513080244038  0.2236704564182546  0.4046594001599360
  0.2147345817604176  0.5320610442440099  0.1397566436074911
  0.1537571634423998  0.7055935965006839  0.0910881673627912
  0.1528890207407514  0.0503080296008349  0.9542635444621936
  0.3460899737903631  0.2055534576028961  0.5908370134569623
  0.7134082367221382  0.7236759358913787  0.9049895849689591
  0.2849699070170999  0.0320536237432520  0.6401517080732546
  0.2143105998855006  0.2238310849251235  0.9051720266855128
  0.3466570500697372  0.5502593703975407  0.4539795773308271
  0.6984703595028989  0.0766794642709812  0.1309010908087700
  0.8253537461719631  0.0944726176196440  0.4417209313539701
  0.8263129132899962  0.6612416152655456  0.6036744038476982
  0.6743315401441237  0.5944563548169981  0.9415500558950640
  0.6734882888463076  0.1612136958316412  0.1035643382660396
  0.3002302603025484  0.6791441770948197  0.4147130885106520
  0.8013066114855221  0.5766965717443000  0.6307688520622321
  0.8003628243706729  0.1790038978541091  0.4143628423489787
  0.2001838653623693  0.5767226825762251  0.1303053702398316
  0.1736420045117768  0.6612608994875018  0.1037433060425101
  0.1727047075475028  0.0946348955062959  0.9413224488508547
  0.3261077780641060  0.1612276531708261  0.6035926623722148
  0.6993990778624095  0.6790032830890098  0.9144886743816230
  0.2994813970561623  0.0767071595946902  0.6304661159834311
  0.1994766241260209  0.1791705375184520  0.9145580348489446
  0.3269036476312905  0.5945936009001542  0.4412114876603681
  0.6312426002204177  0.0891931121323069  0.9723818645972528
  0.8803505396946107  0.1243692003841943  0.5862284831522189
  0.8811297380220111  0.6313493839835189  0.4589100745205386
  0.6193117664711707  0.6243451245895599  0.0861181364781700
  0.6186827504892847  0.1313102147192424  0.9588954005720538
  0.3678810157703793  0.6666588850478945  0.5729773861999092
  0.8685441834598961  0.5892293041781898  0.4722881162561734
  0.8677402665926124  0.1664870899068589  0.5727544622879464
  0.1326491116174466  0.5892000675699052  0.9719311205720373
  0.1193168809646892  0.6313127203595030  0.9588137009666369
  0.1182850208548132  0.1246126745431226  0.0860301700243156
  0.3804789584715280  0.1312566029686124  0.4587833010894329
  0.6319466324051390  0.6664689411193976  0.0727945544736812
  0.3671064424029069  0.0891517528506398  0.4720710431517645
  0.1317839268088363  0.1667229466211211  0.0728817849979180
  0.3813356669320100  0.6245436607469870  0.5860032989560864
  0.8215990327486793  0.9791333074093131  0.2945194417343160
  0.8224471049790765  0.7765933235206859  0.7509850403214671
  0.6780739732445582  0.4791167501527269  0.7940092306401070
  0.6774357318289361  0.2765699020258481  0.2504764057183522
  0.1761609462292810  0.7766448118278788  0.2510568205989898
  0.3241272096891166  0.4792180212381325  0.2937867780700714
  0.1755129200374910  0.9792516187179316  0.7943068412770273
  0.3237063231762889  0.2766206838664544  0.7506296645046646
  0.7555617923674944  0.1064882654851829  0.2796661386340986
  0.7565270550389656  0.6492035754348464  0.7656671408629663
  0.7441787793114472  0.6064919842577012  0.7795862971022274
  0.7432462292316657  0.1491965544719349  0.2656097805422135
  0.2436820441429646  0.6492837739897794  0.2656647980153224
  0.2568078765839914  0.6065735383029889  0.2793105167347179
  0.2428282449996289  0.1065802150397559  0.7793594376513866
  0.2560081360567850  0.1492851866260665  0.7655615462955794
  0.0457967886104953  0.8779564395541470  0.0227564640599525
  0.9521582425657087  0.8779001428863751  0.5226825475205743
  0.4541231242793557  0.3779215443298369  0.5221619454355775
  0.5475682153448247  0.3778886498421343  0.0219288766405867
  0.4336268194142718  0.1411959132721705  0.3351913744109538
  0.9103091385884738  0.5655970459239583  0.3586732815515958
  0.9096105753942396  0.1901229051912026  0.6862270953076788
  0.5894748992940038  0.0655570642282939  0.8588320371250262
  0.5900212919048968  0.6900934132748162  0.1863098875399913
  0.5662288720977955  0.6143393916088300  0.2095913939439242
  0.0662219548826570  0.6412789135243955  0.8352537039214738
  0.0650519437132573  0.1146790229699022  0.2095480242545520
  0.9340187089680043  0.6413683444777476  0.3353040162900243
  0.0903508399887798  0.1904090122076667  0.1865420133482445
  0.0912002812988462  0.5655285502986303  0.8582247548910047
  0.4093191243272969  0.6903222734682046  0.6867144284942270
  0.4345430235780441  0.6145869379540230  0.7094831582855150
  0.5657965296089529  0.1413163020349089  0.8352683568318966
  0.9333634268162783  0.1143758557284258  0.7097774802573724
  0.4086293418473588  0.0654668680496755  0.3584923050696531
  0.7567831177175037  0.4565636456040849  0.0668634766549019
  0.2451481700526514  0.2990527323170369  0.4773834396742345
  0.4453898446179210  0.4676183745897760  0.0145797912924266
  0.0546581450176973  0.7881654377774581  0.5299804192497319
  0.2543068350708637  0.9568170561639491  0.0674298340935806
  0.4452286426965273  0.2881584723558177  0.0294990362393079
  0.9433369135442931  0.9676994344945697  0.0157017947713030
  0.7435647384286099  0.7990331129591368  0.4779674812879549
  0.0540805659060979  0.9676686867353936  0.5152907979861752
  0.5564692975668848  0.4676905985769153  0.5151834855310469
  0.7562231078832937  0.2989742678563161  0.9773085125754690
  0.7428879605794947  0.9565930389229251  0.5674096418407473
  0.5560329874910650  0.2881713520068701  0.5294776822604774
  0.2455599102957109  0.4568056987255034  0.5670395971904796
  0.2547293343362398  0.7991002638835099  0.9778665844380754
  0.9439557402996215  0.7881550440332177  0.0298460756653895
  0.9270006983757852  0.9196997852877189  0.1898725291731935
  0.8623054616894876  0.9159982133180904  0.3633613532157653
  0.9272649658914389  0.8361224157968365  0.8555351962714042
  0.5727971623274257  0.4196786139731330  0.6892875902289006
  0.6372114084844824  0.3397146043177841  0.1812873394738688
  0.1354499102162663  0.8397622303679597  0.1818424037226052
  0.6374674186643929  0.4159758462823078  0.8627784649294128
  0.5726046188817620  0.3361060777131897  0.3549613477145925
  0.3645050121399223  0.4160790337452553  0.3628891478464809
  0.0708541563997116  0.8361105377797884  0.3554793502779887
  0.1352819382764494  0.9161131997057765  0.8634249115071668
  0.3643959079966166  0.3397275390832064  0.6812628312317557
  0.8625715079862317  0.8397466948685022  0.6819535870320195
  0.0706581183908455  0.9197295935904322  0.6897982186661835
  0.4289706636976973  0.3360888572000036  0.8549098554114209
  0.4290055686419976  0.4196922571867390  0.1891396274125796
  0.7857313529910428  0.0214430084727226  0.3031196358601491
  0.7867436079453469  0.7342725855143684  0.7424661798796421
  0.7139264945553023  0.5214300057128511  0.8027284736610980
  0.7131405643718765  0.2342490039738863  0.2420889580611032
  0.2122228241874140  0.7343476824767095  0.2427046492646312
  0.2882282594738612  0.5215264702657976  0.3022585951905583
  0.2114141531319049  0.0215515897432326  0.8026853179554365
  0.2876297199248441  0.2343293985410639  0.7423812502139597
  0.6646786566373919  0.0053330339596158  0.0138504335190390
  0.9093904021347825  0.0387249848168310  0.5893276041377931
  0.9105465476907639  0.7169955464571132  0.4563166047610281
  0.5903928660583944  0.5386980798446785  0.0891145191249123
  0.5893165433855927  0.2169559769267977  0.9560438780108100
  0.3323716225361295  0.7505147445619542  0.5328143644176606
  0.8350169257530808  0.5053583117208689  0.5134156965673924
  0.8339968980437078  0.2503440654030271  0.5315912712829416
  0.1675283072653500  0.5053538339224275  0.0126726717144194
  0.0883474315570467  0.7169328379152020  0.9567513548829965
  0.0875672594090062  0.0389800680365440  0.0887232118709775
  0.4115835792819809  0.2168576222532934  0.4564701733734182
  0.6659274569716018  0.7503379245024604  0.0320656948862066
  0.3322687857201743  0.0053250510435348  0.5132217451943859
  0.1674619635680727  0.2505548729001532  0.0325170831159340
  0.4118637506552147  0.5388999296080215  0.5884650284109227
 
  0.00000000E+00  0.00000000E+00  0.00000000E+00
  0.00000000E+00  0.00000000E+00  0.00000000E+00
  0.00000000E+00  0.00000000E+00  0.00000000E+00
  0.00000000E+00  0.00000000E+00  0.00000000E+00
  0.00000000E+00  0.00000000E+00  0.00000000E+00
  0.00000000E+00  0.00000000E+00  0.00000000E+00
  0.00000000E+00  0.00000000E+00  0.00000000E+00
  0.00000000E+00  0.00000000E+00  0.00000000E+00
  0.00000000E+00  0.00000000E+00  0.00000000E+00
  0.00000000E+00  0.00000000E+00  0.00000000E+00
  0.00000000E+00  0.00000000E+00  0.00000000E+00
  0.00000000E+00  0.00000000E+00  0.00000000E+00
  0.00000000E+00  0.00000000E+00  0.00000000E+00
  0.00000000E+00  0.00000000E+00  0.00000000E+00
  0.00000000E+00  0.00000000E+00  0.00000000E+00
  0.00000000E+00  0.00000000E+00  0.00000000E+00
  0.00000000E+00  0.00000000E+00  0.00000000E+00
  0.00000000E+00  0.00000000E+00  0.00000000E+00
  0.00000000E+00  0.00000000E+00  0.00000000E+00
  0.00000000E+00  0.00000000E+00  0.00000000E+00
  0.00000000E+00  0.00000000E+00  0.00000000E+00
  0.00000000E+00  0.00000000E+00  0.00000000E+00
  0.00000000E+00  0.00000000E+00  0.00000000E+00
  0.00000000E+00  0.00000000E+00  0.00000000E+00
  0.00000000E+00  0.00000000E+00  0.00000000E+00
  0.00000000E+00  0.00000000E+00  0.00000000E+00
  0.00000000E+00  0.00000000E+00  0.00000000E+00
  0.00000000E+00  0.00000000E+00  0.00000000E+00
  0.00000000E+00  0.00000000E+00  0.00000000E+00
  0.00000000E+00  0.00000000E+00  0.00000000E+00
  0.00000000E+00  0.00000000E+00  0.00000000E+00
  0.00000000E+00  0.00000000E+00  0.00000000E+00
  0.00000000E+00  0.00000000E+00  0.00000000E+00
  0.00000000E+00  0.00000000E+00  0.00000000E+00
  0.00000000E+00  0.00000000E+00  0.00000000E+00
  0.00000000E+00  0.00000000E+00  0.00000000E+00
  0.00000000E+00  0.00000000E+00  0.00000000E+00
  0.00000000E+00  0.00000000E+00  0.00000000E+00
  0.00000000E+00  0.00000000E+00  0.00000000E+00
  0.00000000E+00  0.00000000E+00  0.00000000E+00
  0.00000000E+00  0.00000000E+00  0.00000000E+00
  0.00000000E+00  0.00000000E+00  0.00000000E+00
  0.00000000E+00  0.00000000E+00  0.00000000E+00
  0.00000000E+00  0.00000000E+00  0.00000000E+00
  0.00000000E+00  0.00000000E+00  0.00000000E+00
  0.00000000E+00  0.00000000E+00  0.00000000E+00
  0.00000000E+00  0.00000000E+00  0.00000000E+00
  0.00000000E+00  0.00000000E+00  0.00000000E+00
  0.00000000E+00  0.00000000E+00  0.00000000E+00
  0.00000000E+00  0.00000000E+00  0.00000000E+00
  0.00000000E+00  0.00000000E+00  0.00000000E+00
  0.00000000E+00  0.00000000E+00  0.00000000E+00
  0.00000000E+00  0.00000000E+00  0.00000000E+00
  0.00000000E+00  0.00000000E+00  0.00000000E+00
  0.00000000E+00  0.00000000E+00  0.00000000E+00
  0.00000000E+00  0.00000000E+00  0.00000000E+00
  0.00000000E+00  0.00000000E+00  0.00000000E+00
  0.00000000E+00  0.00000000E+00  0.00000000E+00
  0.00000000E+00  0.00000000E+00  0.00000000E+00
  0.00000000E+00  0.00000000E+00  0.00000000E+00
  0.00000000E+00  0.00000000E+00  0.00000000E+00
  0.00000000E+00  0.00000000E+00  0.00000000E+00
  0.00000000E+00  0.00000000E+00  0.00000000E+00
  0.00000000E+00  0.00000000E+00  0.00000000E+00
  0.00000000E+00  0.00000000E+00  0.00000000E+00
  0.00000000E+00  0.00000000E+00  0.00000000E+00
  0.00000000E+00  0.00000000E+00  0.00000000E+00
  0.00000000E+00  0.00000000E+00  0.00000000E+00
  0.00000000E+00  0.00000000E+00  0.00000000E+00
  0.00000000E+00  0.00000000E+00  0.00000000E+00
  0.00000000E+00  0.00000000E+00  0.00000000E+00
  0.00000000E+00  0.00000000E+00  0.00000000E+00
  0.00000000E+00  0.00000000E+00  0.00000000E+00
  0.00000000E+00  0.00000000E+00  0.00000000E+00
  0.00000000E+00  0.00000000E+00  0.00000000E+00
  0.00000000E+00  0.00000000E+00  0.00000000E+00
  0.00000000E+00  0.00000000E+00  0.00000000E+00
  0.00000000E+00  0.00000000E+00  0.00000000E+00
  0.00000000E+00  0.00000000E+00  0.00000000E+00
  0.00000000E+00  0.00000000E+00  0.00000000E+00
  0.00000000E+00  0.00000000E+00  0.00000000E+00
  0.00000000E+00  0.00000000E+00  0.00000000E+00
  0.00000000E+00  0.00000000E+00  0.00000000E+00
  0.00000000E+00  0.00000000E+00  0.00000000E+00
  0.00000000E+00  0.00000000E+00  0.00000000E+00
  0.00000000E+00  0.00000000E+00  0.00000000E+00
  0.00000000E+00  0.00000000E+00  0.00000000E+00
  0.00000000E+00  0.00000000E+00  0.00000000E+00
  0.00000000E+00  0.00000000E+00  0.00000000E+00
  0.00000000E+00  0.00000000E+00  0.00000000E+00
  0.00000000E+00  0.00000000E+00  0.00000000E+00
  0.00000000E+00  0.00000000E+00  0.00000000E+00
  0.00000000E+00  0.00000000E+00  0.00000000E+00
  0.00000000E+00  0.00000000E+00  0.00000000E+00
  0.00000000E+00  0.00000000E+00  0.00000000E+00
  0.00000000E+00  0.00000000E+00  0.00000000E+00
  0.00000000E+00  0.00000000E+00  0.00000000E+00
  0.00000000E+00  0.00000000E+00  0.00000000E+00
  0.00000000E+00  0.00000000E+00  0.00000000E+00
  0.00000000E+00  0.00000000E+00  0.00000000E+00
  0.00000000E+00  0.00000000E+00  0.00000000E+00
  0.00000000E+00  0.00000000E+00  0.00000000E+00
  0.00000000E+00  0.00000000E+00  0.00000000E+00
  0.00000000E+00  0.00000000E+00  0.00000000E+00
  0.00000000E+00  0.00000000E+00  0.00000000E+00
  0.00000000E+00  0.00000000E+00  0.00000000E+00
  0.00000000E+00  0.00000000E+00  0.00000000E+00
  0.00000000E+00  0.00000000E+00  0.00000000E+00
  0.00000000E+00  0.00000000E+00  0.00000000E+00
  0.00000000E+00  0.00000000E+00  0.00000000E+00
  0.00000000E+00  0.00000000E+00  0.00000000E+00
  0.00000000E+00  0.00000000E+00  0.00000000E+00
  0.00000000E+00  0.00000000E+00  0.00000000E+00
  0.00000000E+00  0.00000000E+00  0.00000000E+00
  0.00000000E+00  0.00000000E+00  0.00000000E+00
  0.00000000E+00  0.00000000E+00  0.00000000E+00
  0.00000000E+00  0.00000000E+00  0.00000000E+00
  0.00000000E+00  0.00000000E+00  0.00000000E+00
  0.00000000E+00  0.00000000E+00  0.00000000E+00
  0.00000000E+00  0.00000000E+00  0.00000000E+00
  0.00000000E+00  0.00000000E+00  0.00000000E+00
  0.00000000E+00  0.00000000E+00  0.00000000E+00
  0.00000000E+00  0.00000000E+00  0.00000000E+00
  0.00000000E+00  0.00000000E+00  0.00000000E+00
  0.00000000E+00  0.00000000E+00  0.00000000E+00
  0.00000000E+00  0.00000000E+00  0.00000000E+00
  0.00000000E+00  0.00000000E+00  0.00000000E+00
  0.00000000E+00  0.00000000E+00  0.00000000E+00
  0.00000000E+00  0.00000000E+00  0.00000000E+00
  0.00000000E+00  0.00000000E+00  0.00000000E+00
  0.00000000E+00  0.00000000E+00  0.00000000E+00
  0.00000000E+00  0.00000000E+00  0.00000000E+00
  0.00000000E+00  0.00000000E+00  0.00000000E+00
  0.00000000E+00  0.00000000E+00  0.00000000E+00
  0.00000000E+00  0.00000000E+00  0.00000000E+00
  0.00000000E+00  0.00000000E+00  0.00000000E+00
  0.00000000E+00  0.00000000E+00  0.00000000E+00
  0.00000000E+00  0.00000000E+00  0.00000000E+00
  0.00000000E+00  0.00000000E+00  0.00000000E+00
  0.00000000E+00  0.00000000E+00  0.00000000E+00
  0.00000000E+00  0.00000000E+00  0.00000000E+00
  0.00000000E+00  0.00000000E+00  0.00000000E+00
  0.00000000E+00  0.00000000E+00  0.00000000E+00
  0.00000000E+00  0.00000000E+00  0.00000000E+00
  0.00000000E+00  0.00000000E+00  0.00000000E+00
  0.00000000E+00  0.00000000E+00  0.00000000E+00
  0.00000000E+00  0.00000000E+00  0.00000000E+00
  0.00000000E+00  0.00000000E+00  0.00000000E+00
  0.00000000E+00  0.00000000E+00  0.00000000E+00
  0.00000000E+00  0.00000000E+00  0.00000000E+00
  0.00000000E+00  0.00000000E+00  0.00000000E+00
  0.00000000E+00  0.00000000E+00  0.00000000E+00
  0.00000000E+00  0.00000000E+00  0.00000000E+00
  0.00000000E+00  0.00000000E+00  0.00000000E+00
  0.00000000E+00  0.00000000E+00  0.00000000E+00
  0.00000000E+00  0.00000000E+00  0.00000000E+00
