 Co_F                                   
   1.00000000000000     
     6.9859821433854901   -0.0001726915279970    0.0029867073004289
    -0.0091701850392475   32.0030502068399514    1.6044383148856971
     0.0013620282721838    0.3520191550271852    7.1950154877896324
   C    Co   H    N    O 
    80     4    32    24    16
Direct
  0.7478232953287360  0.9414645578587226  0.0553050522194027
  0.6749390353344253  0.9224989753335961  0.3533501894790376
  0.9262415605940646  0.7850813575268489  0.9027223031083125
  0.7573365524165681  0.4431517741496265  0.5289807361633905
  0.6494958962498458  0.2911565562132239  0.0751650899981300
  0.3325006328807021  0.8236788277510172  0.0745159141137322
  0.8336409113500451  0.4225278303941380  0.8246264716334721
  0.5797378790432219  0.2866034174127421  0.3782150050182551
  0.3445479647843399  0.4544564676481997  0.2973446079600066
  0.2566580030315890  0.8029871139855231  0.3703243157021490
  0.1484797717641015  0.9549541919929254  0.8248879265755988
  0.1756368195303608  0.3235689138029159  0.5473953832357523
  0.8433925183892370  0.7917471014667541  0.6026042194721839
  0.0792590372984989  0.9595009300992814  0.5217857234888115
  0.2491809652520374  0.3045894196500356  0.8451559033841889
  0.4273894168700210  0.4610460827262628  0.9971505000735803
  0.5283305158946519  0.0215420037542842  0.0680277008799095
  0.6297409158484299  0.0132874603806172  0.4009731158061740
  0.9465458165011711  0.7026419210383423  0.5809068418114975
  0.8749526932653424  0.5126194731808056  0.8852700304255237
  0.5467332388386978  0.2013629193944837  0.0702784755650470
  0.4727456815450850  0.7226159356982294  0.3469717209734782
  0.9732172250308935  0.5236554949387724  0.5517427471014429
  0.6621210651794200  0.1932209551725279  0.3999551963982384
  0.3377258580807805  0.5543542828545256  0.9871295981545032
  0.3743600049617868  0.7335692634192625  0.0135783211485148
  0.0459927106471412  0.0447037431395927  0.8299394754672349
  0.1307722766174493  0.2327725951416753  0.4997780322632082
  0.8373331139097644  0.6917869415119213  0.9122940217586688
  0.1612440220267004  0.0528696119626915  0.5000279912311001
  0.0291890038479252  0.2244904250798712  0.8328184810552344
  0.4473235331851484  0.5436143820554662  0.3183181008314762
  0.5261945976326388  0.0674261904950697  0.0745411605480655
  0.6332736483064778  0.0593662408504159  0.3985851404670058
  0.9533485846179133  0.6568232962589065  0.5769616893766454
  0.8674969085603621  0.5585240845411050  0.8896008644087132
  0.5420852597840167  0.1553535177247127  0.0732419430578304
  0.4728259222201743  0.6769719453056311  0.3336423169966451
  0.9730201654772657  0.5692966131408141  0.5652066219978948
  0.6527479054429293  0.1473794915238216  0.3970393102583074
  0.3453434427573470  0.5999741302337185  0.9978923526641879
  0.3671648337513318  0.6876549351018255  0.0093967625882740
  0.0418287786301192  0.0907023143297394  0.8271203764744257
  0.1339779129221341  0.1866981751258123  0.5020034337747035
  0.8451675754383103  0.6461783782314114  0.9014173096270497
  0.1525326634210629  0.0987050124052971  0.5031785781561950
  0.0267004075273007  0.1786137572802033  0.8261322808018789
  0.4536715609264732  0.5894370946742242  0.3222119583564478
  0.4666128085480636  0.0934543476017993  0.9201614548266832
  0.6812159015137311  0.0774943412121161  0.5591423879003301
  0.0200132660603032  0.6400945719573201  0.4186445729972448
  0.8182177653909477  0.5752355418412805  0.0533926291592479
  0.4744265638744736  0.1371924031261145  0.9189902334093674
  0.5301943160474636  0.6497933968518339  0.4851163093113726
  0.0301674976677617  0.5965267368633320  0.4137342938728921
  0.6918575488607743  0.1212470799636662  0.5577344044383281
  0.3057491452394956  0.6272961995771240  0.8410827595273105
  0.3178696883302408  0.6708874596606549  0.8457870113297403
  0.9743571151816894  0.1088465224464485  0.9815306810726057
  0.1817980050381038  0.1685990696217985  0.3413150217290379
  0.8058006547361742  0.6188200099564867  0.0582318825456127
  0.1919055046297373  0.1248496673492241  0.3425292578898294
  0.9669306130567534  0.1525834638669963  0.9805247787691087
  0.5203062064377733  0.6062196222244367  0.4803566811100879
  0.6526954527096507  0.9551212543807139  0.2106168710663354
  0.8753150012674666  0.7618945297073552  0.7546889964999650
  0.8533864746560340  0.4560172485308129  0.6855864701136340
  0.6226050463695785  0.2622671347074359  0.2319737423147004
  0.3524289215331393  0.7901704096151008  0.2133839610108339
  0.3763508975866898  0.4842781185084988  0.1450353931803292
  0.1218031641029711  0.9838337517395672  0.6680712351830920
  0.1537525101853063  0.2909208228054538  0.6901166258898641
  0.5883573652797054  0.0852782664882952  0.2349285538268120
  0.9006675075711712  0.6297644956520827  0.7350995709180097
  0.9107157025556702  0.5856948488529596  0.7291212186314269
  0.5970710835955302  0.1295361418798890  0.2342363479140630
  0.4106189607123483  0.6605243842808335  0.1698708075724724
  0.4008100743198639  0.6164451721610007  0.1640624461365476
  0.0970947573902947  0.1165287813203548  0.6661466722211387
  0.0887713040510505  0.1607799502397427  0.6656183301423297
  0.0136894548900202  0.8736797206788154  0.9672665799144227
  0.9926444871434015  0.8711646865198119  0.4632033822871549
  0.4930834157918156  0.3749634389506582  0.4369225864443891
  0.5148649041983617  0.3724473214704602  0.9328106446232738
  0.2089792760541087  0.1893323324067779  0.2151177360578771
  0.0778920620375558  0.5831924572575176  0.2891416883369118
  0.7286880697200147  0.1355566934369037  0.6832836629021131
  0.4182206331306375  0.0790220711076017  0.7985346237452617
  0.7683044450219398  0.6320545983290415  0.1862192877690276
  0.7930985776201851  0.5536334761557882  0.1773562872164547
  0.2925076682636103  0.6924521323152533  0.7218131688775031
  0.9311752222899941  0.0882755216014530  0.1033959385079228
  0.0591945816494928  0.6615952963065794  0.2983559564098996
  0.9187755789163745  0.1670063547593372  0.1022990057515614
  0.2682422652389818  0.6140254918420567  0.7132132102683499
  0.5779041754599348  0.6631779826130924  0.6095509044724068
  0.5597462863667602  0.5847540250004357  0.6006035445185631
  0.4313421421346106  0.1577527330456903  0.7971361388056906
  0.7082108889286474  0.0567840794694376  0.6854015600854737
  0.2285101453693770  0.1105509349922542  0.2168589614182892
  0.8847688224678123  0.4191518181026623  0.9669681032351960
  0.1260891333727798  0.3260797784245568  0.4045615762432888
  0.4597663779888137  0.4715199906617968  0.8530395643933701
  0.2419707271232738  0.7870358921108007  0.5092867239698862
  0.1847341426844338  0.9601526667541620  0.9665020929085770
  0.2630938845190869  0.2893354923522935  0.9854485642150834
  0.7615145215382100  0.9567258935966549  0.9149777002356387
  0.7996345389352797  0.7875878987218314  0.4617876882098031
  0.0512479383097286  0.9690301275010711  0.3760258643509999
  0.7425609650766205  0.4590588915111695  0.3899581148996702
  0.6860618958865317  0.2859822263714520  0.9335665418833159
  0.6256166789372912  0.9199984992569838  0.4963259778385023
  0.5515805486602119  0.2770791183789285  0.5240001078377006
  0.3008239842315277  0.4586402995350269  0.4381922188716203
  0.3834019427727711  0.8270765889841911  0.9320275617115996
  0.9587000652249955  0.7745452293617916  0.0467097863924053
  0.8304292315009221  0.9042076752226649  0.1066946537747242
  0.7860685750271088  0.8922345024543503  0.2907855703077331
  0.9310239719956925  0.8260872323802815  0.8394238617832599
  0.6761789818935640  0.4055698321706203  0.5767756615002426
  0.6180198025462005  0.3300756063596850  0.1228055956339702
  0.2216097769941570  0.8536227575041124  0.1401250699488941
  0.7225678136429465  0.3925599519576579  0.7594626553986146
  0.5754509745077172  0.3273110532540358  0.3101403079599692
  0.3816073850585013  0.4160362606436792  0.2462944472966697
  0.1754613905056388  0.8405629382008613  0.3229053143145535
  0.1172304608167067  0.9160297280871958  0.7772135518767485
  0.2868051330384418  0.3538570312846758  0.6097086284976214
  0.8803592279361467  0.8301550197760008  0.6538673343374128
  0.0749698185959673  0.9187941084814852  0.5898590172877718
  0.3315890373941599  0.3418763314648814  0.7936054027385708
  0.4322652630125958  0.4200540927702363  0.0606902561116698
  0.5940298272822915  0.9969128290291849  0.2284159397254868
  0.8785369056623011  0.7178807332444777  0.7479464259514970
  0.9099419904810375  0.4977059489861091  0.7091596830174609
  0.6181129907036507  0.2180716598139156  0.2325648080376865
  0.4091621393839588  0.7485097787949684  0.1896274222310765
  0.3793293206212098  0.5283041185202322  0.1514731261709770
  0.1174135329593540  0.0280177893308604  0.6675438507712599
  0.0950002054849719  0.2491291108415652  0.6723985164673039
  0.4824105380919761  0.0054278458746282  0.9265176614797710
  0.6653599046795620  0.9903213648520932  0.5434644305408014
  0.0015758012937042  0.7265312180790389  0.4474720235861867
  0.8430801619570687  0.4885141274112215  0.0251510876707641
  0.4881877104609842  0.2241768109412163  0.9349124525651078
  0.5183986802662446  0.7375404448655800  0.4916326552461143
  0.0189211236349038  0.5087878032506552  0.4069141686212845
  0.7058475054430886  0.2095936834375536  0.5419818149205184
  0.2981582168697585  0.5391368413121640  0.8410616194239111
  0.3424763754383449  0.7576542682492544  0.8736690123015691
  0.9870059717195829  0.0218862534074447  0.9652145701844290
  0.1667033914997305  0.2557496780512025  0.3573472582029282
  0.7978422090604980  0.7069710415818307  0.0584986556228060
  0.2042170171026356  0.0365024341380220  0.3577385501542736
  0.9834454379533284  0.2405879616753452  0.9744669105324277
  0.5027383232066001  0.5197737253631871  0.4516539700329290
 
  0.00000000E+00  0.00000000E+00  0.00000000E+00
  0.00000000E+00  0.00000000E+00  0.00000000E+00
  0.00000000E+00  0.00000000E+00  0.00000000E+00
  0.00000000E+00  0.00000000E+00  0.00000000E+00
  0.00000000E+00  0.00000000E+00  0.00000000E+00
  0.00000000E+00  0.00000000E+00  0.00000000E+00
  0.00000000E+00  0.00000000E+00  0.00000000E+00
  0.00000000E+00  0.00000000E+00  0.00000000E+00
  0.00000000E+00  0.00000000E+00  0.00000000E+00
  0.00000000E+00  0.00000000E+00  0.00000000E+00
  0.00000000E+00  0.00000000E+00  0.00000000E+00
  0.00000000E+00  0.00000000E+00  0.00000000E+00
  0.00000000E+00  0.00000000E+00  0.00000000E+00
  0.00000000E+00  0.00000000E+00  0.00000000E+00
  0.00000000E+00  0.00000000E+00  0.00000000E+00
  0.00000000E+00  0.00000000E+00  0.00000000E+00
  0.00000000E+00  0.00000000E+00  0.00000000E+00
  0.00000000E+00  0.00000000E+00  0.00000000E+00
  0.00000000E+00  0.00000000E+00  0.00000000E+00
  0.00000000E+00  0.00000000E+00  0.00000000E+00
  0.00000000E+00  0.00000000E+00  0.00000000E+00
  0.00000000E+00  0.00000000E+00  0.00000000E+00
  0.00000000E+00  0.00000000E+00  0.00000000E+00
  0.00000000E+00  0.00000000E+00  0.00000000E+00
  0.00000000E+00  0.00000000E+00  0.00000000E+00
  0.00000000E+00  0.00000000E+00  0.00000000E+00
  0.00000000E+00  0.00000000E+00  0.00000000E+00
  0.00000000E+00  0.00000000E+00  0.00000000E+00
  0.00000000E+00  0.00000000E+00  0.00000000E+00
  0.00000000E+00  0.00000000E+00  0.00000000E+00
  0.00000000E+00  0.00000000E+00  0.00000000E+00
  0.00000000E+00  0.00000000E+00  0.00000000E+00
  0.00000000E+00  0.00000000E+00  0.00000000E+00
  0.00000000E+00  0.00000000E+00  0.00000000E+00
  0.00000000E+00  0.00000000E+00  0.00000000E+00
  0.00000000E+00  0.00000000E+00  0.00000000E+00
  0.00000000E+00  0.00000000E+00  0.00000000E+00
  0.00000000E+00  0.00000000E+00  0.00000000E+00
  0.00000000E+00  0.00000000E+00  0.00000000E+00
  0.00000000E+00  0.00000000E+00  0.00000000E+00
  0.00000000E+00  0.00000000E+00  0.00000000E+00
  0.00000000E+00  0.00000000E+00  0.00000000E+00
  0.00000000E+00  0.00000000E+00  0.00000000E+00
  0.00000000E+00  0.00000000E+00  0.00000000E+00
  0.00000000E+00  0.00000000E+00  0.00000000E+00
  0.00000000E+00  0.00000000E+00  0.00000000E+00
  0.00000000E+00  0.00000000E+00  0.00000000E+00
  0.00000000E+00  0.00000000E+00  0.00000000E+00
  0.00000000E+00  0.00000000E+00  0.00000000E+00
  0.00000000E+00  0.00000000E+00  0.00000000E+00
  0.00000000E+00  0.00000000E+00  0.00000000E+00
  0.00000000E+00  0.00000000E+00  0.00000000E+00
  0.00000000E+00  0.00000000E+00  0.00000000E+00
  0.00000000E+00  0.00000000E+00  0.00000000E+00
  0.00000000E+00  0.00000000E+00  0.00000000E+00
  0.00000000E+00  0.00000000E+00  0.00000000E+00
  0.00000000E+00  0.00000000E+00  0.00000000E+00
  0.00000000E+00  0.00000000E+00  0.00000000E+00
  0.00000000E+00  0.00000000E+00  0.00000000E+00
  0.00000000E+00  0.00000000E+00  0.00000000E+00
  0.00000000E+00  0.00000000E+00  0.00000000E+00
  0.00000000E+00  0.00000000E+00  0.00000000E+00
  0.00000000E+00  0.00000000E+00  0.00000000E+00
  0.00000000E+00  0.00000000E+00  0.00000000E+00
  0.00000000E+00  0.00000000E+00  0.00000000E+00
  0.00000000E+00  0.00000000E+00  0.00000000E+00
  0.00000000E+00  0.00000000E+00  0.00000000E+00
  0.00000000E+00  0.00000000E+00  0.00000000E+00
  0.00000000E+00  0.00000000E+00  0.00000000E+00
  0.00000000E+00  0.00000000E+00  0.00000000E+00
  0.00000000E+00  0.00000000E+00  0.00000000E+00
  0.00000000E+00  0.00000000E+00  0.00000000E+00
  0.00000000E+00  0.00000000E+00  0.00000000E+00
  0.00000000E+00  0.00000000E+00  0.00000000E+00
  0.00000000E+00  0.00000000E+00  0.00000000E+00
  0.00000000E+00  0.00000000E+00  0.00000000E+00
  0.00000000E+00  0.00000000E+00  0.00000000E+00
  0.00000000E+00  0.00000000E+00  0.00000000E+00
  0.00000000E+00  0.00000000E+00  0.00000000E+00
  0.00000000E+00  0.00000000E+00  0.00000000E+00
  0.00000000E+00  0.00000000E+00  0.00000000E+00
  0.00000000E+00  0.00000000E+00  0.00000000E+00
  0.00000000E+00  0.00000000E+00  0.00000000E+00
  0.00000000E+00  0.00000000E+00  0.00000000E+00
  0.00000000E+00  0.00000000E+00  0.00000000E+00
  0.00000000E+00  0.00000000E+00  0.00000000E+00
  0.00000000E+00  0.00000000E+00  0.00000000E+00
  0.00000000E+00  0.00000000E+00  0.00000000E+00
  0.00000000E+00  0.00000000E+00  0.00000000E+00
  0.00000000E+00  0.00000000E+00  0.00000000E+00
  0.00000000E+00  0.00000000E+00  0.00000000E+00
  0.00000000E+00  0.00000000E+00  0.00000000E+00
  0.00000000E+00  0.00000000E+00  0.00000000E+00
  0.00000000E+00  0.00000000E+00  0.00000000E+00
  0.00000000E+00  0.00000000E+00  0.00000000E+00
  0.00000000E+00  0.00000000E+00  0.00000000E+00
  0.00000000E+00  0.00000000E+00  0.00000000E+00
  0.00000000E+00  0.00000000E+00  0.00000000E+00
  0.00000000E+00  0.00000000E+00  0.00000000E+00
  0.00000000E+00  0.00000000E+00  0.00000000E+00
  0.00000000E+00  0.00000000E+00  0.00000000E+00
  0.00000000E+00  0.00000000E+00  0.00000000E+00
  0.00000000E+00  0.00000000E+00  0.00000000E+00
  0.00000000E+00  0.00000000E+00  0.00000000E+00
  0.00000000E+00  0.00000000E+00  0.00000000E+00
  0.00000000E+00  0.00000000E+00  0.00000000E+00
  0.00000000E+00  0.00000000E+00  0.00000000E+00
  0.00000000E+00  0.00000000E+00  0.00000000E+00
  0.00000000E+00  0.00000000E+00  0.00000000E+00
  0.00000000E+00  0.00000000E+00  0.00000000E+00
  0.00000000E+00  0.00000000E+00  0.00000000E+00
  0.00000000E+00  0.00000000E+00  0.00000000E+00
  0.00000000E+00  0.00000000E+00  0.00000000E+00
  0.00000000E+00  0.00000000E+00  0.00000000E+00
  0.00000000E+00  0.00000000E+00  0.00000000E+00
  0.00000000E+00  0.00000000E+00  0.00000000E+00
  0.00000000E+00  0.00000000E+00  0.00000000E+00
  0.00000000E+00  0.00000000E+00  0.00000000E+00
  0.00000000E+00  0.00000000E+00  0.00000000E+00
  0.00000000E+00  0.00000000E+00  0.00000000E+00
  0.00000000E+00  0.00000000E+00  0.00000000E+00
  0.00000000E+00  0.00000000E+00  0.00000000E+00
  0.00000000E+00  0.00000000E+00  0.00000000E+00
  0.00000000E+00  0.00000000E+00  0.00000000E+00
  0.00000000E+00  0.00000000E+00  0.00000000E+00
  0.00000000E+00  0.00000000E+00  0.00000000E+00
  0.00000000E+00  0.00000000E+00  0.00000000E+00
  0.00000000E+00  0.00000000E+00  0.00000000E+00
  0.00000000E+00  0.00000000E+00  0.00000000E+00
  0.00000000E+00  0.00000000E+00  0.00000000E+00
  0.00000000E+00  0.00000000E+00  0.00000000E+00
  0.00000000E+00  0.00000000E+00  0.00000000E+00
  0.00000000E+00  0.00000000E+00  0.00000000E+00
  0.00000000E+00  0.00000000E+00  0.00000000E+00
  0.00000000E+00  0.00000000E+00  0.00000000E+00
  0.00000000E+00  0.00000000E+00  0.00000000E+00
  0.00000000E+00  0.00000000E+00  0.00000000E+00
  0.00000000E+00  0.00000000E+00  0.00000000E+00
  0.00000000E+00  0.00000000E+00  0.00000000E+00
  0.00000000E+00  0.00000000E+00  0.00000000E+00
  0.00000000E+00  0.00000000E+00  0.00000000E+00
  0.00000000E+00  0.00000000E+00  0.00000000E+00
  0.00000000E+00  0.00000000E+00  0.00000000E+00
  0.00000000E+00  0.00000000E+00  0.00000000E+00
  0.00000000E+00  0.00000000E+00  0.00000000E+00
  0.00000000E+00  0.00000000E+00  0.00000000E+00
  0.00000000E+00  0.00000000E+00  0.00000000E+00
  0.00000000E+00  0.00000000E+00  0.00000000E+00
  0.00000000E+00  0.00000000E+00  0.00000000E+00
  0.00000000E+00  0.00000000E+00  0.00000000E+00
  0.00000000E+00  0.00000000E+00  0.00000000E+00
  0.00000000E+00  0.00000000E+00  0.00000000E+00
  0.00000000E+00  0.00000000E+00  0.00000000E+00
  0.00000000E+00  0.00000000E+00  0.00000000E+00
  0.00000000E+00  0.00000000E+00  0.00000000E+00
  0.00000000E+00  0.00000000E+00  0.00000000E+00
