FeH_7                                   
   1.00000000000000     
    10.5351932199498322    0.0007367101659929   -0.0012006312865591
    -0.0017429299452394   32.9305334124333058    2.3413515931603248
     0.0003572266521713    0.5046664051754692    5.7257885076587858
   C    Fe   H    N    O 
    80     4    32    24    16
Direct
  0.7947868228386099  0.9524680972320212  0.0697607175688617
  0.8975836959572732  0.9586731788577438  0.4024561038395973
  0.7921195968866073  0.8025978924651582  0.9104032084486633
  0.7049078384184781  0.4526081704731340  0.5666326934196633
  0.6053686169669774  0.2963160838131529  0.0734613147913450
  0.1012762905932334  0.7956845371933596  0.0787608274479510
  0.6019812743152784  0.4587266017429883  0.8993187248344086
  0.7078916758011857  0.3028422938376991  0.4059267059358831
  0.3950472439935382  0.4582986860412319  0.4000751742989905
  0.2038240068904642  0.8017867346737120  0.4118484096452875
  0.1048290215307901  0.9582208357945845  0.9035776945871987
  0.3983259386963383  0.2958185684125212  0.5746650560387110
  0.8943857341276953  0.7961741829125444  0.5775458971995349
  0.2073048990852868  0.9516610995704298  0.5711201244689050
  0.2956439552094565  0.3019526859041264  0.9075462731391397
  0.2923129885707567  0.4518303231444705  0.0677125958566194
  0.7135444663235404  0.0328032120245823  0.3991611923173650
  0.8473775605602327  0.0498800329279518  0.0340750797471614
  0.8418647200470630  0.7051328140842514  0.9453096846189410
  0.6525277830687344  0.5500247619865490  0.5328292024862833
  0.6579544408436746  0.2054167448984572  0.4422932051012651
  0.2854742673929351  0.7217129424645137  0.0812385145987449
  0.7863561824413949  0.5326882707483236  0.8977514669833582
  0.7912537415103102  0.2225433930549627  0.0766671202423055
  0.2086306628032020  0.5318457995320287  0.3983402952097705
  0.1516323723168469  0.7042923223588247  0.4460182727992077
  0.1578737945190980  0.0491152555101380  0.5345272644855683
  0.3481352509865374  0.2045402160573033  0.9429383935896425
  0.7084223825851410  0.7225143372680023  0.5799802006262595
  0.2910787936234058  0.0319144422494304  0.9002895354610700
  0.2142710589945693  0.2216848953299362  0.5779397471941863
  0.3421419622043800  0.5493352185002678  0.0331770958993687
  0.6979630097089569  0.0771820435303283  0.4032452061393954
  0.8316771257005371  0.0938921154593686  0.0486012443309320
  0.8260317810502116  0.6611727997835501  0.9297114922651275
  0.6682790774142902  0.5939927322819614  0.5483576298003996
  0.6738269596181752  0.1614126166270111  0.4278378458067209
  0.3013164575397411  0.6773923655307144  0.0759479520487147
  0.8019776840840507  0.5770260135931906  0.9028883887598411
  0.8072501309423288  0.1781528148387963  0.0729663235231541
  0.1925240172335876  0.5761806507709224  0.4034537138019942
  0.1676480623952585  0.6603290802621302  0.4304084058719866
  0.1739632742671660  0.0931082603945654  0.5489809935244665
  0.3322122954199287  0.1605394646356402  0.9283479466175137
  0.6925256643426181  0.6781619441674565  0.5749859254555076
  0.3073314245951906  0.0762950733836476  0.9039238468641955
  0.1985783330590820  0.1773212596090872  0.5736515037542489
  0.3260461558321310  0.5932810688184276  0.0489004258321657
  0.6259669167656199  0.0902467990591660  0.5807696570652396
  0.8917044085322274  0.1232016539336129  0.8840713629468056
  0.8858708841507195  0.6317796143489574  0.0939278827565388
  0.6082576673633966  0.6233931743822865  0.3843997292429222
  0.6140330471013868  0.1321162492119754  0.5927384559514977
  0.3735366161583613  0.6645475303095054  0.8980427486516120
  0.8739596650762849  0.5899469414465273  0.0808600474733510
  0.8795299272795631  0.1650788023979075  0.8958296307040925
  0.1201873290378330  0.5890394362419755  0.5811885740698628
  0.1077862293004372  0.6308636286267983  0.5942596732710967
  0.1142223108556806  0.1224384054259957  0.3841611788133363
  0.3921275139934934  0.1311909676133851  0.0928573971933631
  0.6203382292878246  0.6652337605083645  0.3972769384077353
  0.3797148823504202  0.0893213109071169  0.0811068596107276
  0.1264231109157521  0.1643021105870019  0.3961571528756593
  0.3858198062848288  0.6227308597275609  0.8848709507697805
  0.8201382574537135  0.9798232957697763  0.2266995890999226
  0.8163108033213433  0.7752392586020846  0.7529392037540177
  0.6795953264464885  0.4798965660538599  0.7239644682718307
  0.6836364632681793  0.2754373532626531  0.2487636731367715
  0.1784893936469416  0.7744733848541472  0.2546767770036737
  0.3166737559530262  0.4791970065029574  0.2250524617421163
  0.1831023598289221  0.9790798561840859  0.7282275418290212
  0.3210000564409299  0.2746257563153662  0.7504692525046366
  0.7587052977437452  0.1063205148402702  0.2319398107679476
  0.7532229175171281  0.6489023588247846  0.7457133536324960
  0.7412284049944020  0.6062728591209563  0.7321595803960719
  0.7466437646525677  0.1489930238399992  0.2443411387983474
  0.2407186381991195  0.6481042950271174  0.2465804467103823
  0.2530508350054177  0.6054921391768957  0.2328370520176222
  0.2468929267025217  0.1054879457892284  0.7324981912670054
  0.2591830414665708  0.1481499270958793  0.7449699959950209
  0.9567197069108602  0.8772611877222403  0.9904524546358573
  0.0423507904240950  0.8771278154451494  0.4908981380163411
  0.5430478917420416  0.3773759523481885  0.4865721470279638
  0.4571033931962987  0.3772389366424278  0.9869899338535149
  0.4475954377796256  0.1415626772498797  0.2320345546012916
  0.9193787276741645  0.5667684418232639  0.2103337889883292
  0.9249532821187074  0.1881723316291541  0.7658600557328228
  0.5805852742200130  0.0671563882241273  0.7107855079713232
  0.5748997232655668  0.6884112944644656  0.2678103879441025
  0.5528977686968659  0.6130926038720119  0.2448474378533305
  0.0523148242421527  0.6410905949266663  0.7338738498080630
  0.0589422033137623  0.1120557411183754  0.2448108199473893
  0.9409823007456950  0.6420799704923255  0.2337511242131569
  0.0810455668833043  0.1874274674596350  0.2663122506348685
  0.0748490320375907  0.5658114424641667  0.7104984807616859
  0.4188460118446216  0.6877768725769826  0.7687384343720893
  0.4411474254604855  0.6124840948403190  0.7451332947520370
  0.5589068927017991  0.1425339749588588  0.7321651680334611
  0.9470911648390228  0.1127971309201357  0.7448981933055947
  0.4250273972363416  0.0661947499894708  0.2110394948961769
  0.5602612121477364  0.4694693993680019  0.0508886002065623
  0.4399928713530841  0.2850780894616847  0.4230335169772843
  0.2377142816854487  0.4563659172124730  0.9052430353670289
  0.2580893753607398  0.7970711552165000  0.5747037296872577
  0.0636373974664011  0.9691312721729659  0.0550975379971348
  0.2413410667943268  0.2972482438885180  0.0703516685372421
  0.7404006952903188  0.9571352585063551  0.9070490626109304
  0.9355849305008519  0.7853071053411185  0.4258917775350142
  0.2617673834964620  0.9561569102158600  0.4085148439367430
  0.7593514861602770  0.4573225614062153  0.4039918831444709
  0.5641023080485681  0.2854070205417472  0.9219926578508577
  0.9392652640083483  0.9694426358445440  0.5539892967270532
  0.7623775791414644  0.2983260192885169  0.5685145326157439
  0.4364158948301338  0.4691847986654665  0.5515183252161151
  0.0597146280309673  0.7849561414798387  0.9269952376743475
  0.7377398317453085  0.7980408193721402  0.0731187245970233
  0.8549360721779067  0.9166817281111221  0.1486162166081400
  0.9182353508194510  0.9207741510264924  0.3527504526890937
  0.8534536195731519  0.8381884223692282  0.8320880622834679
  0.6446341137223968  0.4168230426271933  0.6449917964514285
  0.5832324774637740  0.3341070975574070  0.1236457753152109
  0.0807550005142659  0.8335848224208320  0.1285709016174224
  0.5812483204738896  0.4208668111179321  0.8490898891388454
  0.6463627611892377  0.3383963081425563  0.3276474909642602
  0.4171021975058053  0.4205197531192084  0.3496746903417360
  0.1439154641696234  0.8376148094759515  0.3329287166571007
  0.0826973797381072  0.9204191957650991  0.8535565377963508
  0.4188843818085957  0.3337174674684960  0.6244651938759773
  0.9164308081618842  0.8339593109368266  0.6278523400984639
  0.1457783729338615  0.9161132413879542  0.6495342001216713
  0.3556359553265480  0.3377670509114026  0.8287007527922015
  0.3538685229001572  0.4162645416990003  0.1457307443311677
  0.7872942564940573  0.0219137872623847  0.2125505269085579
  0.7824339391319839  0.7332359432914046  0.7667329396692111
  0.7126417117951220  0.5219516393879431  0.7106866852071292
  0.7174571144512782  0.2334145233210805  0.2632559671815997
  0.2115383926193175  0.7324113834971442  0.2680902922426753
  0.2826650296304649  0.5211865159749962  0.2114727703255852
  0.2171109574179368  0.0210855348599637  0.7137693656202089
  0.2881518811751960  0.2325384133590234  0.7644868373433624
  0.6668413133332152  0.0063086776258245  0.5492255330229412
  0.9100671942863272  0.0376532627901085  0.8783623638584075
  0.9042164905075296  0.7172045281672510  0.1019552658883214
  0.5897330778875656  0.5379087195373273  0.3768766607895984
  0.5954982950112964  0.2176050936289045  0.5984152395764966
  0.3321848080846905  0.7483276257527720  0.9318763347026149
  0.8329815799994904  0.5060954421110893  0.0473449671309396
  0.8376146066668611  0.2490489188607228  0.9262777959288044
  0.1621445587619021  0.5052057072226646  0.5477768441686166
  0.0888642118829068  0.7163636478174951  0.6021381279879847
  0.0954159307203213  0.0369449573667353  0.3783290690448098
  0.4108759531144131  0.2167325488754557  0.0987267059780308
  0.6618333355095558  0.7491246506672837  0.4304640674697566
  0.3373790462810717  0.0053887622792388  0.0506415805610487
  0.1674955989078626  0.2482016213797564  0.4280949547607875
  0.4047198540387527  0.5373065434824724  0.8766875305352215
 
  0.00000000E+00  0.00000000E+00  0.00000000E+00
  0.00000000E+00  0.00000000E+00  0.00000000E+00
  0.00000000E+00  0.00000000E+00  0.00000000E+00
  0.00000000E+00  0.00000000E+00  0.00000000E+00
  0.00000000E+00  0.00000000E+00  0.00000000E+00
  0.00000000E+00  0.00000000E+00  0.00000000E+00
  0.00000000E+00  0.00000000E+00  0.00000000E+00
  0.00000000E+00  0.00000000E+00  0.00000000E+00
  0.00000000E+00  0.00000000E+00  0.00000000E+00
  0.00000000E+00  0.00000000E+00  0.00000000E+00
  0.00000000E+00  0.00000000E+00  0.00000000E+00
  0.00000000E+00  0.00000000E+00  0.00000000E+00
  0.00000000E+00  0.00000000E+00  0.00000000E+00
  0.00000000E+00  0.00000000E+00  0.00000000E+00
  0.00000000E+00  0.00000000E+00  0.00000000E+00
  0.00000000E+00  0.00000000E+00  0.00000000E+00
  0.00000000E+00  0.00000000E+00  0.00000000E+00
  0.00000000E+00  0.00000000E+00  0.00000000E+00
  0.00000000E+00  0.00000000E+00  0.00000000E+00
  0.00000000E+00  0.00000000E+00  0.00000000E+00
  0.00000000E+00  0.00000000E+00  0.00000000E+00
  0.00000000E+00  0.00000000E+00  0.00000000E+00
  0.00000000E+00  0.00000000E+00  0.00000000E+00
  0.00000000E+00  0.00000000E+00  0.00000000E+00
  0.00000000E+00  0.00000000E+00  0.00000000E+00
  0.00000000E+00  0.00000000E+00  0.00000000E+00
  0.00000000E+00  0.00000000E+00  0.00000000E+00
  0.00000000E+00  0.00000000E+00  0.00000000E+00
  0.00000000E+00  0.00000000E+00  0.00000000E+00
  0.00000000E+00  0.00000000E+00  0.00000000E+00
  0.00000000E+00  0.00000000E+00  0.00000000E+00
  0.00000000E+00  0.00000000E+00  0.00000000E+00
  0.00000000E+00  0.00000000E+00  0.00000000E+00
  0.00000000E+00  0.00000000E+00  0.00000000E+00
  0.00000000E+00  0.00000000E+00  0.00000000E+00
  0.00000000E+00  0.00000000E+00  0.00000000E+00
  0.00000000E+00  0.00000000E+00  0.00000000E+00
  0.00000000E+00  0.00000000E+00  0.00000000E+00
  0.00000000E+00  0.00000000E+00  0.00000000E+00
  0.00000000E+00  0.00000000E+00  0.00000000E+00
  0.00000000E+00  0.00000000E+00  0.00000000E+00
  0.00000000E+00  0.00000000E+00  0.00000000E+00
  0.00000000E+00  0.00000000E+00  0.00000000E+00
  0.00000000E+00  0.00000000E+00  0.00000000E+00
  0.00000000E+00  0.00000000E+00  0.00000000E+00
  0.00000000E+00  0.00000000E+00  0.00000000E+00
  0.00000000E+00  0.00000000E+00  0.00000000E+00
  0.00000000E+00  0.00000000E+00  0.00000000E+00
  0.00000000E+00  0.00000000E+00  0.00000000E+00
  0.00000000E+00  0.00000000E+00  0.00000000E+00
  0.00000000E+00  0.00000000E+00  0.00000000E+00
  0.00000000E+00  0.00000000E+00  0.00000000E+00
  0.00000000E+00  0.00000000E+00  0.00000000E+00
  0.00000000E+00  0.00000000E+00  0.00000000E+00
  0.00000000E+00  0.00000000E+00  0.00000000E+00
  0.00000000E+00  0.00000000E+00  0.00000000E+00
  0.00000000E+00  0.00000000E+00  0.00000000E+00
  0.00000000E+00  0.00000000E+00  0.00000000E+00
  0.00000000E+00  0.00000000E+00  0.00000000E+00
  0.00000000E+00  0.00000000E+00  0.00000000E+00
  0.00000000E+00  0.00000000E+00  0.00000000E+00
  0.00000000E+00  0.00000000E+00  0.00000000E+00
  0.00000000E+00  0.00000000E+00  0.00000000E+00
  0.00000000E+00  0.00000000E+00  0.00000000E+00
  0.00000000E+00  0.00000000E+00  0.00000000E+00
  0.00000000E+00  0.00000000E+00  0.00000000E+00
  0.00000000E+00  0.00000000E+00  0.00000000E+00
  0.00000000E+00  0.00000000E+00  0.00000000E+00
  0.00000000E+00  0.00000000E+00  0.00000000E+00
  0.00000000E+00  0.00000000E+00  0.00000000E+00
  0.00000000E+00  0.00000000E+00  0.00000000E+00
  0.00000000E+00  0.00000000E+00  0.00000000E+00
  0.00000000E+00  0.00000000E+00  0.00000000E+00
  0.00000000E+00  0.00000000E+00  0.00000000E+00
  0.00000000E+00  0.00000000E+00  0.00000000E+00
  0.00000000E+00  0.00000000E+00  0.00000000E+00
  0.00000000E+00  0.00000000E+00  0.00000000E+00
  0.00000000E+00  0.00000000E+00  0.00000000E+00
  0.00000000E+00  0.00000000E+00  0.00000000E+00
  0.00000000E+00  0.00000000E+00  0.00000000E+00
  0.00000000E+00  0.00000000E+00  0.00000000E+00
  0.00000000E+00  0.00000000E+00  0.00000000E+00
  0.00000000E+00  0.00000000E+00  0.00000000E+00
  0.00000000E+00  0.00000000E+00  0.00000000E+00
  0.00000000E+00  0.00000000E+00  0.00000000E+00
  0.00000000E+00  0.00000000E+00  0.00000000E+00
  0.00000000E+00  0.00000000E+00  0.00000000E+00
  0.00000000E+00  0.00000000E+00  0.00000000E+00
  0.00000000E+00  0.00000000E+00  0.00000000E+00
  0.00000000E+00  0.00000000E+00  0.00000000E+00
  0.00000000E+00  0.00000000E+00  0.00000000E+00
  0.00000000E+00  0.00000000E+00  0.00000000E+00
  0.00000000E+00  0.00000000E+00  0.00000000E+00
  0.00000000E+00  0.00000000E+00  0.00000000E+00
  0.00000000E+00  0.00000000E+00  0.00000000E+00
  0.00000000E+00  0.00000000E+00  0.00000000E+00
  0.00000000E+00  0.00000000E+00  0.00000000E+00
  0.00000000E+00  0.00000000E+00  0.00000000E+00
  0.00000000E+00  0.00000000E+00  0.00000000E+00
  0.00000000E+00  0.00000000E+00  0.00000000E+00
  0.00000000E+00  0.00000000E+00  0.00000000E+00
  0.00000000E+00  0.00000000E+00  0.00000000E+00
  0.00000000E+00  0.00000000E+00  0.00000000E+00
  0.00000000E+00  0.00000000E+00  0.00000000E+00
  0.00000000E+00  0.00000000E+00  0.00000000E+00
  0.00000000E+00  0.00000000E+00  0.00000000E+00
  0.00000000E+00  0.00000000E+00  0.00000000E+00
  0.00000000E+00  0.00000000E+00  0.00000000E+00
  0.00000000E+00  0.00000000E+00  0.00000000E+00
  0.00000000E+00  0.00000000E+00  0.00000000E+00
  0.00000000E+00  0.00000000E+00  0.00000000E+00
  0.00000000E+00  0.00000000E+00  0.00000000E+00
  0.00000000E+00  0.00000000E+00  0.00000000E+00
  0.00000000E+00  0.00000000E+00  0.00000000E+00
  0.00000000E+00  0.00000000E+00  0.00000000E+00
  0.00000000E+00  0.00000000E+00  0.00000000E+00
  0.00000000E+00  0.00000000E+00  0.00000000E+00
  0.00000000E+00  0.00000000E+00  0.00000000E+00
  0.00000000E+00  0.00000000E+00  0.00000000E+00
  0.00000000E+00  0.00000000E+00  0.00000000E+00
  0.00000000E+00  0.00000000E+00  0.00000000E+00
  0.00000000E+00  0.00000000E+00  0.00000000E+00
  0.00000000E+00  0.00000000E+00  0.00000000E+00
  0.00000000E+00  0.00000000E+00  0.00000000E+00
  0.00000000E+00  0.00000000E+00  0.00000000E+00
  0.00000000E+00  0.00000000E+00  0.00000000E+00
  0.00000000E+00  0.00000000E+00  0.00000000E+00
  0.00000000E+00  0.00000000E+00  0.00000000E+00
  0.00000000E+00  0.00000000E+00  0.00000000E+00
  0.00000000E+00  0.00000000E+00  0.00000000E+00
  0.00000000E+00  0.00000000E+00  0.00000000E+00
  0.00000000E+00  0.00000000E+00  0.00000000E+00
  0.00000000E+00  0.00000000E+00  0.00000000E+00
  0.00000000E+00  0.00000000E+00  0.00000000E+00
  0.00000000E+00  0.00000000E+00  0.00000000E+00
  0.00000000E+00  0.00000000E+00  0.00000000E+00
  0.00000000E+00  0.00000000E+00  0.00000000E+00
  0.00000000E+00  0.00000000E+00  0.00000000E+00
  0.00000000E+00  0.00000000E+00  0.00000000E+00
  0.00000000E+00  0.00000000E+00  0.00000000E+00
  0.00000000E+00  0.00000000E+00  0.00000000E+00
  0.00000000E+00  0.00000000E+00  0.00000000E+00
  0.00000000E+00  0.00000000E+00  0.00000000E+00
  0.00000000E+00  0.00000000E+00  0.00000000E+00
  0.00000000E+00  0.00000000E+00  0.00000000E+00
  0.00000000E+00  0.00000000E+00  0.00000000E+00
  0.00000000E+00  0.00000000E+00  0.00000000E+00
  0.00000000E+00  0.00000000E+00  0.00000000E+00
  0.00000000E+00  0.00000000E+00  0.00000000E+00
  0.00000000E+00  0.00000000E+00  0.00000000E+00
  0.00000000E+00  0.00000000E+00  0.00000000E+00
  0.00000000E+00  0.00000000E+00  0.00000000E+00
  0.00000000E+00  0.00000000E+00  0.00000000E+00
  0.00000000E+00  0.00000000E+00  0.00000000E+00
  0.00000000E+00  0.00000000E+00  0.00000000E+00
  0.00000000E+00  0.00000000E+00  0.00000000E+00
