 Co_F                                   
   1.00000000000000     
     6.4515560585176486    0.0016304597567729   -0.0006178501698703
    -0.0016745310278665   31.5886831251699114    2.3093090591861225
    -0.0025875297746072    0.4955403081581192    7.3465447640056807
   C    Co   H    N    O 
    80     4    32    24    16
Direct
  0.7071975143289677  0.9391968385942846  0.0460699272862826
  0.6394989009930754  0.9169430412737114  0.3410946616021135
  0.9421548405886355  0.7838817680460508  0.8945545177349530
  0.7941315613422901  0.4391517235690046  0.5461498905614377
  0.6300528041296118  0.2907686152792905  0.0964094138137312
  0.3610410995599977  0.8291086642308940  0.0588046130630104
  0.8612883303518686  0.4170402791307595  0.8414332234137518
  0.5590079419042979  0.2838701573197753  0.3949096694584640
  0.3699559266944874  0.4552830198350719  0.3034354414500200
  0.2938872160358557  0.8070284283059266  0.3540555435342156
  0.1308482800178510  0.9553455545189564  0.8032358906114254
  0.1402143844360069  0.3291671280837676  0.5581487546330450
  0.8704773642539152  0.7908131796059550  0.5960830726462447
  0.0584075763018461  0.9622827885831811  0.5049071154463434
  0.2069861566210207  0.3070164127279469  0.8534752437930138
  0.4425569712630235  0.4622715501170376  0.0052243634963602
  0.4897028212751948  0.0209336750002436  0.0632060564001833
  0.5715152970135762  0.0071187428870161  0.3960955301450184
  0.9876518026917651  0.7016141713979707  0.5815061367533616
  0.9292708105287701  0.5071893038138668  0.8959078392572550
  0.5126428050695182  0.2015864037434696  0.0819539877186912
  0.5107227101582197  0.7251415531734793  0.3375063380624184
  0.0108931114477642  0.5209599452011275  0.5630109553368570
  0.6027513807335509  0.1883676240003709  0.4137927905736163
  0.3981421950057822  0.5577283614205655  0.9865390297207881
  0.4291978350486900  0.7389467131359879  0.0045732497896722
  0.0129253992214160  0.0445537829563563  0.8177652143674337
  0.0714207814297296  0.2390178602480120  0.5034770893611267
  0.8975850762366093  0.6884084449030752  0.9133029229938785
  0.1024087408013941  0.0577476134235440  0.4858432711439065
  0.9895133820268143  0.2252520536853524  0.8362796820783984
  0.4877219259632781  0.5444730613446254  0.3185039391178890
  0.4854881399040423  0.0668126412863828  0.0751110071814125
  0.5807064575780245  0.0535858940611291  0.3980565809002243
  0.9967162369129383  0.6553050063118278  0.5810113352356652
  0.9200471583345688  0.5536508444485690  0.8977485506159439
  0.5037501829689575  0.1552754226488062  0.0813976679532828
  0.5150545241009397  0.6792515153060847  0.3255748513412087
  0.0151025512954774  0.5668436670500938  0.5748360569871451
  0.6009459837086411  0.1424154949831618  0.4047149138781378
  0.3997944467953474  0.6036738587189703  0.9957238650355151
  0.4199242461483905  0.6924878626414923  0.0026226204494648
  0.0036059345650656  0.0908667497907416  0.8181711649720214
  0.0804113116813383  0.1925423990124102  0.5015792708299713
  0.8995323343599537  0.6424656437181042  0.9042535001591574
  0.1006864383276991  0.1037039890402767  0.4949074248772973
  0.9852364444613073  0.1793507191578882  0.8244626335383316
  0.4970308416857847  0.5907807718837219  0.3190309183179778
  0.4310282801751910  0.0953460580673280  0.9228858867828649
  0.6206146532273351  0.0695168375834214  0.5604677644367939
  0.0596818239786217  0.6394510509248192  0.4240076435122475
  0.8797298529253652  0.5695921921269189  0.0600303307630909
  0.4406553884785538  0.1394322219612292  0.9243788937292408
  0.5692805851278422  0.6506978496428957  0.4778370262370402
  0.0693373410813933  0.5953661758932611  0.4225251465698321
  0.6320246497029203  0.1137017348399496  0.5619742166585411
  0.3681982582973546  0.6324006073340485  0.8385950953226384
  0.3796114864163158  0.6765793740187505  0.8402429350984306
  0.9404984325059971  0.1067186540857605  0.9751161420765442
  0.1204921294342753  0.1765971371763086  0.3392608997735067
  0.8682415028789521  0.6137708946565184  0.0614982813457914
  0.1319664365069002  0.1324142347071628  0.3377152785431363
  0.9307984250643813  0.1508095596573611  0.9766204012343422
  0.5597545543813212  0.6066088097612905  0.4762101732723849
  0.6089037349066970  0.9513116172639826  0.2019032668414980
  0.9077057222118867  0.7603232497049177  0.7493815117202018
  0.8921127893026508  0.4513429207464768  0.7019962695475641
  0.5929615550616703  0.2602925263594216  0.2497339563846737
  0.3919734793259906  0.7948100695536198  0.1983487682414591
  0.4076799760630152  0.4858021809187179  0.1504129840902735
  0.0931747766017921  0.9858405950605160  0.6500376797262533
  0.1090577353096762  0.2948546134490613  0.6975124682624667
  0.5439908905887378  0.0822534856172439  0.2372945524408649
  0.9470497321033093  0.6268663882032754  0.7397018085749352
  0.9567421131622424  0.5822965508146396  0.7369871411243452
  0.5536203818677876  0.1268260125816738  0.2400794666884138
  0.4568494660179852  0.6638145326423839  0.1632979499205192
  0.4473254551161361  0.6192473374213208  0.1603658421586118
  0.0532654335912710  0.1193132244839532  0.6594800959367717
  0.0436780343082859  0.1638879822221568  0.6623159195493713
  0.0026410328773636  0.8736890755221154  0.9531671584633301
  0.9979461743114939  0.8725238260195880  0.4462385464610890
  0.4986668210645107  0.3737119770755868  0.4533478827515296
  0.5029164288640260  0.3724809692343598  0.9464119941095603
  0.1368095132220404  0.1991777639706243  0.2142678816284516
  0.1129827732662747  0.5825191001494474  0.2994707640429226
  0.6629788007592197  0.1264664083694882  0.6879766304359620
  0.3872188509769785  0.0825183412240165  0.7998182086296239
  0.8370761710943668  0.6265402431887779  0.1874266679783574
  0.8632747771624452  0.5469976146289213  0.1849898713951745
  0.3631788405411100  0.6991860683236055  0.7152981038699977
  0.9077269131396264  0.0841826350056891  0.0969573376107249
  0.0922648744017422  0.6619865208235183  0.3021260407490018
  0.8871203679485902  0.1636419535696589  0.0997017989683044
  0.3369815779811987  0.6196509287231606  0.7126001444759567
  0.6126658300253069  0.6635122383814291  0.6010675576923248
  0.5921135665814035  0.5840552023897772  0.5981398991214988
  0.4078149552596955  0.1619787944799853  0.8025307402581134
  0.6368539457457771  0.0469339605875660  0.6854970586952334
  0.1630699534135971  0.1196711302975615  0.2117047533618646
  0.9110393996846824  0.4128205830510083  0.9830035601864680
  0.0906714268586626  0.3334267959044084  0.4165235690834450
  0.4733275789136187  0.4729825688405001  0.8618190923589779
  0.2867591479609644  0.7906622983180753  0.4930443703999501
  0.1674819072810791  0.9593852353457990  0.9426299018936888
  0.2139943378321476  0.2906494007582410  0.9924779976339977
  0.7145010596317505  0.9556413201231635  0.9072165573598312
  0.8343725749021971  0.7867691549856204  0.4565875044779375
  0.0278053789992896  0.9729698854858739  0.3614187717903476
  0.7869270168407354  0.4555328033546928  0.4071835803066719
  0.6658963613857622  0.2867382300500125  0.9568734903875296
  0.5894337092800015  0.9126336799682946  0.4825307947405832
  0.5287588360726048  0.2731993466215741  0.5384203380125712
  0.3333715070538901  0.4592744659359767  0.4428614721238091
  0.4107781873693241  0.8333412135380129  0.9172788263007092
  0.9724894847157657  0.7731899294393827  0.0380870267535585
  0.8021374190423032  0.9015682913301575  0.0944101430781359
  0.7612170507939169  0.8874506298931593  0.2767565993719359
  0.9331822313957829  0.8257510604088836  0.8286178694193893
  0.6991363831978532  0.4015439482529928  0.5946694308533935
  0.6114481777336280  0.3298941037978338  0.1444477382367566
  0.2392956538787843  0.8586242722801529  0.1228749282511856
  0.7396791104219034  0.3875238668606329  0.7771782043269226
  0.5681232644662799  0.3257346701221167  0.3289883588221088
  0.3892088758675598  0.4161701504397755  0.2553187616287786
  0.1986982395599313  0.8446248474551297  0.3053558052912990
  0.1116370790516896  0.9162237043986181  0.7552581287743578
  0.2619567051312686  0.3586376280470063  0.6225650679671872
  0.8895143741579332  0.8299312620555668  0.6440864522153902
  0.0675315493723474  0.9204209010814566  0.5708073622497665
  0.3022961013684196  0.3446014135837743  0.8050746051608542
  0.4334693255121636  0.4204005104869353  0.0709392663633963
  0.5449341413875857  0.9932414237270635  0.2221145257038870
  0.9210066653744562  0.7159187575913180  0.7469648262683464
  0.9559836269156250  0.4932774385726049  0.7220306638132783
  0.5794907750342162  0.2158869622330428  0.2473960206882211
  0.4558817568382025  0.7528539847495495  0.1784733710961603
  0.4210892326298321  0.5302021774292527  0.1529453606842495
  0.0796944375575563  0.0302506652608159  0.6523418302690231
  0.0448477896593005  0.2529332067877732  0.6773672741838865
  0.4547365837588728  0.0072341743015372  0.9177006734426101
  0.5951358563955793  0.9816044703647293  0.5361311309712420
  0.0390871474990604  0.7266899730471650  0.4462947506408241
  0.9055366794561408  0.4817170561578621  0.0360481613004282
  0.4609379946149375  0.2266562650249213  0.9467678618620852
  0.5453971240164250  0.7388392790298468  0.4830752954019104
  0.0455475214825114  0.5072367318358957  0.4175043535736407
  0.6233312256140877  0.2027608266012706  0.5601961166437093
  0.3779032702966134  0.5433252948250029  0.8401155977956662
  0.4055410398279591  0.7644380453126800  0.8644568395700745
  0.9617068674505518  0.0194673900294546  0.9529882734943911
  0.0952784547253316  0.2644900556317822  0.3633698112596875
  0.8767267097272793  0.7028162844485522  0.0596460012188373
  0.1226331244455565  0.0433353488847743  0.3394640285764936
  0.9544952386100078  0.2389731877388854  0.9817066158015209
  0.5388313613786266  0.5193656590345981  0.4537723574155805
 
  0.00000000E+00  0.00000000E+00  0.00000000E+00
  0.00000000E+00  0.00000000E+00  0.00000000E+00
  0.00000000E+00  0.00000000E+00  0.00000000E+00
  0.00000000E+00  0.00000000E+00  0.00000000E+00
  0.00000000E+00  0.00000000E+00  0.00000000E+00
  0.00000000E+00  0.00000000E+00  0.00000000E+00
  0.00000000E+00  0.00000000E+00  0.00000000E+00
  0.00000000E+00  0.00000000E+00  0.00000000E+00
  0.00000000E+00  0.00000000E+00  0.00000000E+00
  0.00000000E+00  0.00000000E+00  0.00000000E+00
  0.00000000E+00  0.00000000E+00  0.00000000E+00
  0.00000000E+00  0.00000000E+00  0.00000000E+00
  0.00000000E+00  0.00000000E+00  0.00000000E+00
  0.00000000E+00  0.00000000E+00  0.00000000E+00
  0.00000000E+00  0.00000000E+00  0.00000000E+00
  0.00000000E+00  0.00000000E+00  0.00000000E+00
  0.00000000E+00  0.00000000E+00  0.00000000E+00
  0.00000000E+00  0.00000000E+00  0.00000000E+00
  0.00000000E+00  0.00000000E+00  0.00000000E+00
  0.00000000E+00  0.00000000E+00  0.00000000E+00
  0.00000000E+00  0.00000000E+00  0.00000000E+00
  0.00000000E+00  0.00000000E+00  0.00000000E+00
  0.00000000E+00  0.00000000E+00  0.00000000E+00
  0.00000000E+00  0.00000000E+00  0.00000000E+00
  0.00000000E+00  0.00000000E+00  0.00000000E+00
  0.00000000E+00  0.00000000E+00  0.00000000E+00
  0.00000000E+00  0.00000000E+00  0.00000000E+00
  0.00000000E+00  0.00000000E+00  0.00000000E+00
  0.00000000E+00  0.00000000E+00  0.00000000E+00
  0.00000000E+00  0.00000000E+00  0.00000000E+00
  0.00000000E+00  0.00000000E+00  0.00000000E+00
  0.00000000E+00  0.00000000E+00  0.00000000E+00
  0.00000000E+00  0.00000000E+00  0.00000000E+00
  0.00000000E+00  0.00000000E+00  0.00000000E+00
  0.00000000E+00  0.00000000E+00  0.00000000E+00
  0.00000000E+00  0.00000000E+00  0.00000000E+00
  0.00000000E+00  0.00000000E+00  0.00000000E+00
  0.00000000E+00  0.00000000E+00  0.00000000E+00
  0.00000000E+00  0.00000000E+00  0.00000000E+00
  0.00000000E+00  0.00000000E+00  0.00000000E+00
  0.00000000E+00  0.00000000E+00  0.00000000E+00
  0.00000000E+00  0.00000000E+00  0.00000000E+00
  0.00000000E+00  0.00000000E+00  0.00000000E+00
  0.00000000E+00  0.00000000E+00  0.00000000E+00
  0.00000000E+00  0.00000000E+00  0.00000000E+00
  0.00000000E+00  0.00000000E+00  0.00000000E+00
  0.00000000E+00  0.00000000E+00  0.00000000E+00
  0.00000000E+00  0.00000000E+00  0.00000000E+00
  0.00000000E+00  0.00000000E+00  0.00000000E+00
  0.00000000E+00  0.00000000E+00  0.00000000E+00
  0.00000000E+00  0.00000000E+00  0.00000000E+00
  0.00000000E+00  0.00000000E+00  0.00000000E+00
  0.00000000E+00  0.00000000E+00  0.00000000E+00
  0.00000000E+00  0.00000000E+00  0.00000000E+00
  0.00000000E+00  0.00000000E+00  0.00000000E+00
  0.00000000E+00  0.00000000E+00  0.00000000E+00
  0.00000000E+00  0.00000000E+00  0.00000000E+00
  0.00000000E+00  0.00000000E+00  0.00000000E+00
  0.00000000E+00  0.00000000E+00  0.00000000E+00
  0.00000000E+00  0.00000000E+00  0.00000000E+00
  0.00000000E+00  0.00000000E+00  0.00000000E+00
  0.00000000E+00  0.00000000E+00  0.00000000E+00
  0.00000000E+00  0.00000000E+00  0.00000000E+00
  0.00000000E+00  0.00000000E+00  0.00000000E+00
  0.00000000E+00  0.00000000E+00  0.00000000E+00
  0.00000000E+00  0.00000000E+00  0.00000000E+00
  0.00000000E+00  0.00000000E+00  0.00000000E+00
  0.00000000E+00  0.00000000E+00  0.00000000E+00
  0.00000000E+00  0.00000000E+00  0.00000000E+00
  0.00000000E+00  0.00000000E+00  0.00000000E+00
  0.00000000E+00  0.00000000E+00  0.00000000E+00
  0.00000000E+00  0.00000000E+00  0.00000000E+00
  0.00000000E+00  0.00000000E+00  0.00000000E+00
  0.00000000E+00  0.00000000E+00  0.00000000E+00
  0.00000000E+00  0.00000000E+00  0.00000000E+00
  0.00000000E+00  0.00000000E+00  0.00000000E+00
  0.00000000E+00  0.00000000E+00  0.00000000E+00
  0.00000000E+00  0.00000000E+00  0.00000000E+00
  0.00000000E+00  0.00000000E+00  0.00000000E+00
  0.00000000E+00  0.00000000E+00  0.00000000E+00
  0.00000000E+00  0.00000000E+00  0.00000000E+00
  0.00000000E+00  0.00000000E+00  0.00000000E+00
  0.00000000E+00  0.00000000E+00  0.00000000E+00
  0.00000000E+00  0.00000000E+00  0.00000000E+00
  0.00000000E+00  0.00000000E+00  0.00000000E+00
  0.00000000E+00  0.00000000E+00  0.00000000E+00
  0.00000000E+00  0.00000000E+00  0.00000000E+00
  0.00000000E+00  0.00000000E+00  0.00000000E+00
  0.00000000E+00  0.00000000E+00  0.00000000E+00
  0.00000000E+00  0.00000000E+00  0.00000000E+00
  0.00000000E+00  0.00000000E+00  0.00000000E+00
  0.00000000E+00  0.00000000E+00  0.00000000E+00
  0.00000000E+00  0.00000000E+00  0.00000000E+00
  0.00000000E+00  0.00000000E+00  0.00000000E+00
  0.00000000E+00  0.00000000E+00  0.00000000E+00
  0.00000000E+00  0.00000000E+00  0.00000000E+00
  0.00000000E+00  0.00000000E+00  0.00000000E+00
  0.00000000E+00  0.00000000E+00  0.00000000E+00
  0.00000000E+00  0.00000000E+00  0.00000000E+00
  0.00000000E+00  0.00000000E+00  0.00000000E+00
  0.00000000E+00  0.00000000E+00  0.00000000E+00
  0.00000000E+00  0.00000000E+00  0.00000000E+00
  0.00000000E+00  0.00000000E+00  0.00000000E+00
  0.00000000E+00  0.00000000E+00  0.00000000E+00
  0.00000000E+00  0.00000000E+00  0.00000000E+00
  0.00000000E+00  0.00000000E+00  0.00000000E+00
  0.00000000E+00  0.00000000E+00  0.00000000E+00
  0.00000000E+00  0.00000000E+00  0.00000000E+00
  0.00000000E+00  0.00000000E+00  0.00000000E+00
  0.00000000E+00  0.00000000E+00  0.00000000E+00
  0.00000000E+00  0.00000000E+00  0.00000000E+00
  0.00000000E+00  0.00000000E+00  0.00000000E+00
  0.00000000E+00  0.00000000E+00  0.00000000E+00
  0.00000000E+00  0.00000000E+00  0.00000000E+00
  0.00000000E+00  0.00000000E+00  0.00000000E+00
  0.00000000E+00  0.00000000E+00  0.00000000E+00
  0.00000000E+00  0.00000000E+00  0.00000000E+00
  0.00000000E+00  0.00000000E+00  0.00000000E+00
  0.00000000E+00  0.00000000E+00  0.00000000E+00
  0.00000000E+00  0.00000000E+00  0.00000000E+00
  0.00000000E+00  0.00000000E+00  0.00000000E+00
  0.00000000E+00  0.00000000E+00  0.00000000E+00
  0.00000000E+00  0.00000000E+00  0.00000000E+00
  0.00000000E+00  0.00000000E+00  0.00000000E+00
  0.00000000E+00  0.00000000E+00  0.00000000E+00
  0.00000000E+00  0.00000000E+00  0.00000000E+00
  0.00000000E+00  0.00000000E+00  0.00000000E+00
  0.00000000E+00  0.00000000E+00  0.00000000E+00
  0.00000000E+00  0.00000000E+00  0.00000000E+00
  0.00000000E+00  0.00000000E+00  0.00000000E+00
  0.00000000E+00  0.00000000E+00  0.00000000E+00
  0.00000000E+00  0.00000000E+00  0.00000000E+00
  0.00000000E+00  0.00000000E+00  0.00000000E+00
  0.00000000E+00  0.00000000E+00  0.00000000E+00
  0.00000000E+00  0.00000000E+00  0.00000000E+00
  0.00000000E+00  0.00000000E+00  0.00000000E+00
  0.00000000E+00  0.00000000E+00  0.00000000E+00
  0.00000000E+00  0.00000000E+00  0.00000000E+00
  0.00000000E+00  0.00000000E+00  0.00000000E+00
  0.00000000E+00  0.00000000E+00  0.00000000E+00
  0.00000000E+00  0.00000000E+00  0.00000000E+00
  0.00000000E+00  0.00000000E+00  0.00000000E+00
  0.00000000E+00  0.00000000E+00  0.00000000E+00
  0.00000000E+00  0.00000000E+00  0.00000000E+00
  0.00000000E+00  0.00000000E+00  0.00000000E+00
  0.00000000E+00  0.00000000E+00  0.00000000E+00
  0.00000000E+00  0.00000000E+00  0.00000000E+00
  0.00000000E+00  0.00000000E+00  0.00000000E+00
  0.00000000E+00  0.00000000E+00  0.00000000E+00
  0.00000000E+00  0.00000000E+00  0.00000000E+00
  0.00000000E+00  0.00000000E+00  0.00000000E+00
  0.00000000E+00  0.00000000E+00  0.00000000E+00
  0.00000000E+00  0.00000000E+00  0.00000000E+00
  0.00000000E+00  0.00000000E+00  0.00000000E+00
  0.00000000E+00  0.00000000E+00  0.00000000E+00
  0.00000000E+00  0.00000000E+00  0.00000000E+00
