FeH_exp1                                
   1.00000000000000     
    24.7748384380203746    0.0027936907799654   -0.0160139426614672
    -0.0010629542499771   24.9294525125862592    2.5420889835282510
    -0.0041898016841662    0.1088690284188383    7.0560330142707617
   C    Fe   H    N    O 
    80     4    32    24    16
Direct
  0.9070440096356123  0.9717439813504996  0.0957701045770918
  0.9252327494903483  0.9788736653004690  0.4006084439047441
  0.9069056654085372  0.8096651338442413  0.9129909395648781
  0.5929147266865940  0.4717015429900115  0.5988197924264327
  0.5747413747308343  0.3018391444192829  0.1100397333327834
  0.0745894838740355  0.8017200582421111  0.1079731921470639
  0.5743311130842699  0.4791821142758153  0.9029796709596383
  0.5932989675303730  0.3095452508821381  0.4142477550346584
  0.4253313983289999  0.4789931346245737  0.4019196812536023
  0.0927245911275136  0.8089453301132892  0.4127922207030892
  0.0750485011597561  0.9790500310597849  0.8992314510783217
  0.4255744223553464  0.3016581886600918  0.6088642495224832
  0.9250349839919849  0.8017731940118864  0.6087898744786031
  0.0932702697571628  0.9711345516283245  0.5951372920087508
  0.4069821965457692  0.3091674728304170  0.9130145265295937
  0.4066684351678092  0.4712589160724505  0.0978393432492695
  0.8199916155943754  0.0403753017792710  0.4193637644496988
  0.8451351587578770  0.0775065360055720  0.0842320133522989
  0.8447851807974374  0.7039450186000806  0.9271566253604391
  0.6542368466384687  0.5776666068572638  0.5868414357855229
  0.6552439297992834  0.2038231646720803  0.4269446359936353
  0.1798617890644394  0.7401932895284986  0.0902909142675625
  0.6796305768476003  0.5407612254539771  0.9222584077704568
  0.6802900265730827  0.2408447262022690  0.0915388088651170
  0.3197921670560575  0.5401433076048079  0.4204321291517346
  0.1544918601787444  0.7031091379151846  0.4252924755903820
  0.1554445733475021  0.0768926525295512  0.5817030772209861
  0.3455005311464490  0.2032507824505885  0.9245667892978702
  0.8194578497443104  0.7406967450907018  0.5915303169267645
  0.1807108290016401  0.0399050688692810  0.9171155028347968
  0.3202403324784910  0.2402930390804769  0.5891642524916563
  0.3450884561785728  0.5771717573319179  0.0852877662253775
  0.7780582430840468  0.0825238003985334  0.4173262233366444
  0.8029180963513625  0.1190643040690134  0.0903422258487439
  0.8024385358389736  0.6624699198276502  0.9218409669296861
  0.6965534755205312  0.6191369962645155  0.5923474108181352
  0.6974882011376877  0.1622920397964123  0.4208898167203898
  0.2219481563366728  0.6981863336708329  0.0930461503278082
  0.7216661406095497  0.5828368027733077  0.9195692513657647
  0.7223254172332290  0.1988180561690882  0.0938121921057089
  0.2776999325654259  0.5821469876245047  0.4176788945764116
  0.1968724402779785  0.6616812902871629  0.4198959507056514
  0.1977330022662827  0.1183942314625810  0.5877101663620863
  0.3033011012256850  0.1616958372613055  0.9184142810529394
  0.7773217766345866  0.6987288880347649  0.5944780681730109
  0.2227481205589896  0.0819416902541192  0.9148990529063497
  0.2782999180530510  0.1981693144250016  0.5911898097572106
  0.3027486098411813  0.6186237491859856  0.0907480682883133
  0.7456533671448753  0.0848118293620104  0.5775863573572835
  0.7947707616751103  0.1570064570867444  0.9319150984832945
  0.7943924718848123  0.6246540870468422  0.0806321482028167
  0.7045869883163505  0.6569107438067334  0.4334934612934020
  0.7056119166786488  0.1243285932690767  0.5792615882166103
  0.2544894522418488  0.6958993347481126  0.9331412021390335
  0.7542486357008542  0.5852113369075340  0.0796043064769805
  0.7547167362575138  0.1965095226689897  0.9335671280580655
  0.2451047870110514  0.5843778443967693  0.5774895041010666
  0.2049247706672617  0.6237734284630179  0.5784960072234426
  0.2057994655765683  0.1562984619469674  0.4291888144979907
  0.2952908348563454  0.1237542975507750  0.0768411368557764
  0.7447376101907821  0.6963381805248758  0.4344373183382260
  0.2552607410287351  0.0842304401192919  0.0751632684540766
  0.2458501447746926  0.1958093795463043  0.4308228257278799
  0.2946518359281285  0.6564886362383575  0.9320699463437379
  0.8919157234192667  0.9996656805417246  0.2486554145080433
  0.8917102203148204  0.7813886399726755  0.7610025487121064
  0.6077492965258244  0.4998463479748878  0.7515178104587363
  0.6082648307137077  0.2813961780614846  0.2618492322713664
  0.1078125567927302  0.7809081530788973  0.2601896428353143
  0.3917843605937819  0.4994399941664369  0.2502489087101409
  0.1084499569634545  0.9993860972492783  0.7471802123421227
  0.3921153877489942  0.2810536021542944  0.7602861481138703
  0.7705435364086242  0.1205370809043131  0.2546963230790027
  0.7698747774573320  0.6609264665508121  0.7576852750255583
  0.7291063737778813  0.6206857667677355  0.7564992104812447
  0.7298752310373544  0.1608586714066007  0.2565497486876467
  0.2294376391188209  0.6602784557560000  0.2559819431501325
  0.2702282178559159  0.6200658156359893  0.2547543164611952
  0.2301822979859978  0.1199042725242805  0.7521482809674112
  0.2708457764480059  0.1602226613384232  0.7539976625922549
  0.9930288195694672  0.8906323400458049  0.0038479822602753
  0.0070172732599332  0.8902447334632200  0.5041376804098547
  0.5072101183222415  0.3904440541327361  0.5060028208701866
  0.4927648282934882  0.3903172789730078  0.0059981237442699
  0.3207760143239966  0.1256751773245526  0.2017855987895061
  0.7476190022232672  0.5557853986438701  0.2037030236856552
  0.7479786060547511  0.2260070048196781  0.8097015162741030
  0.7523321906519627  0.0552620099491676  0.7013524440307179
  0.7513882549070274  0.7257182298526814  0.3102305928481002
  0.6790364890381966  0.6549217427621556  0.3087825392805641
  0.1793379903537158  0.6256174740210625  0.7030030126222400
  0.1803371927554309  0.1543660912767137  0.3042051930142193
  0.8199442453313637  0.6265900417265300  0.2053854425156914
  0.2525136323977506  0.2252979121386858  0.3069299534126984
  0.2517508693816097  0.5548771640968084  0.7014156310947470
  0.2478061645326832  0.7253605034288171  0.8091455329156219
  0.3201697758345645  0.6545869026517366  0.8074310324077061
  0.6801848662641135  0.1261999269245493  0.7041661932405958
  0.8201435509406920  0.1550961214862880  0.8069132414842528
  0.2486461881810911  0.0546933723418732  0.1989409085145510
  0.5725029799199248  0.4894760173984949  0.0477103830488161
  0.4273908392638219  0.2913647479838630  0.4641306645308063
  0.3912490927728314  0.4748507391774126  0.9530547804939502
  0.1078378391651142  0.8051531592392820  0.5580184914082906
  0.0733843656784146  0.9894451017234331  0.0438758910785424
  0.3916053927161300  0.3054616692740453  0.0577386709183116
  0.8919040267657010  0.9755745255265253  0.9505746808245590
  0.9266460285959042  0.7913828473462274  0.4641365402068658
  0.1084576820699255  0.9745624731376097  0.4501890969319646
  0.6082829607004712  0.4754224428036764  0.4540893904721486
  0.5729666236149455  0.2914900820704744  0.9653396548458417
  0.9269199192552975  0.9889223140938412  0.5456797978512853
  0.6086740044061045  0.3059444845474744  0.5590872779937115
  0.4271919914012727  0.4893923835996219  0.5465237717097651
  0.0729010125297904  0.7915968543736582  0.9629908696910761
  0.8917785119596999  0.8062047765545657  0.0580300848112714
  0.9467368770534392  0.9365519349896871  0.1536234986792593
  0.9579186312754828  0.9410126076883003  0.3421841112603516
  0.9466306916582141  0.8446821446038655  0.8544169706378781
  0.5532877110179015  0.4364597804073895  0.6563001195998410
  0.5420636301592054  0.3397589665929601  0.1681018989783709
  0.0420105837780582  0.8397311255737563  0.1659958671874904
  0.5418499115023749  0.4411300497231636  0.8445069722945462
  0.5534829304084496  0.3445694658858898  0.3563046488734116
  0.4579474524448770  0.4410286492504483  0.3438330947200754
  0.0531707001838910  0.8442439304572815  0.3545312031262355
  0.0422658991237981  0.9411100053353394  0.8416257779981393
  0.4581238541492709  0.3396382270448228  0.6674329779378922
  0.9577933248544852  0.8397493510501590  0.6662765334238330
  0.0534797074134232  0.9361664306717188  0.6535135994161081
  0.4466876365611370  0.3443258899619579  0.8556058033869292
  0.4464641031152752  0.4362008739356042  0.1556817588131452
  0.8515408673749931  0.0400256836466752  0.2507148146322749
  0.8512069066314538  0.7411283240653077  0.7599277941881368
  0.6480279700316558  0.5402750683878850  0.7535671783441913
  0.6487239703466443  0.2411373517427151  0.2601195094712452
  0.1481770384801209  0.7405350808322595  0.2586091651669875
  0.3513890236927253  0.5397595873380467  0.2519659940521350
  0.1489851763648247  0.0396041559497604  0.7485903827683487
  0.3518033191041070  0.2406733966532286  0.7579935735984193
  0.8276688836806940  0.0069311923523756  0.5586677352720955
  0.8735291734125710  0.0747943645472731  0.9428221499218026
  0.8732751216780059  0.7068247762938853  0.0684553480521188
  0.6255935508203052  0.5749382057295875  0.4458357076327815
  0.6269241404772004  0.2066438311538406  0.5684545478049898
  0.1721508089045898  0.7735293697282941  0.9506664064927364
  0.6719293701045643  0.5075076853497791  0.0620342423610794
  0.6725116319584359  0.2742299654371934  0.9521260893137438
  0.3275655055346718  0.5068500273490102  0.5600983494559344
  0.1258966493769478  0.7057495635096345  0.5662420819132805
  0.1270105043051046  0.0741286639230125  0.4401704655967364
  0.3739558180262321  0.2060069807338678  0.0660155826162239
  0.8271456632100680  0.7739271967367642  0.4516797834848916
  0.1730564153095173  0.0065219361468323  0.0565284836644153
  0.3279334257179869  0.2736913775758723  0.4497843482914945
  0.3736649772710905  0.5744892630898946  0.9443268017474153
 
  0.00000000E+00  0.00000000E+00  0.00000000E+00
  0.00000000E+00  0.00000000E+00  0.00000000E+00
  0.00000000E+00  0.00000000E+00  0.00000000E+00
  0.00000000E+00  0.00000000E+00  0.00000000E+00
  0.00000000E+00  0.00000000E+00  0.00000000E+00
  0.00000000E+00  0.00000000E+00  0.00000000E+00
  0.00000000E+00  0.00000000E+00  0.00000000E+00
  0.00000000E+00  0.00000000E+00  0.00000000E+00
  0.00000000E+00  0.00000000E+00  0.00000000E+00
  0.00000000E+00  0.00000000E+00  0.00000000E+00
  0.00000000E+00  0.00000000E+00  0.00000000E+00
  0.00000000E+00  0.00000000E+00  0.00000000E+00
  0.00000000E+00  0.00000000E+00  0.00000000E+00
  0.00000000E+00  0.00000000E+00  0.00000000E+00
  0.00000000E+00  0.00000000E+00  0.00000000E+00
  0.00000000E+00  0.00000000E+00  0.00000000E+00
  0.00000000E+00  0.00000000E+00  0.00000000E+00
  0.00000000E+00  0.00000000E+00  0.00000000E+00
  0.00000000E+00  0.00000000E+00  0.00000000E+00
  0.00000000E+00  0.00000000E+00  0.00000000E+00
  0.00000000E+00  0.00000000E+00  0.00000000E+00
  0.00000000E+00  0.00000000E+00  0.00000000E+00
  0.00000000E+00  0.00000000E+00  0.00000000E+00
  0.00000000E+00  0.00000000E+00  0.00000000E+00
  0.00000000E+00  0.00000000E+00  0.00000000E+00
  0.00000000E+00  0.00000000E+00  0.00000000E+00
  0.00000000E+00  0.00000000E+00  0.00000000E+00
  0.00000000E+00  0.00000000E+00  0.00000000E+00
  0.00000000E+00  0.00000000E+00  0.00000000E+00
  0.00000000E+00  0.00000000E+00  0.00000000E+00
  0.00000000E+00  0.00000000E+00  0.00000000E+00
  0.00000000E+00  0.00000000E+00  0.00000000E+00
  0.00000000E+00  0.00000000E+00  0.00000000E+00
  0.00000000E+00  0.00000000E+00  0.00000000E+00
  0.00000000E+00  0.00000000E+00  0.00000000E+00
  0.00000000E+00  0.00000000E+00  0.00000000E+00
  0.00000000E+00  0.00000000E+00  0.00000000E+00
  0.00000000E+00  0.00000000E+00  0.00000000E+00
  0.00000000E+00  0.00000000E+00  0.00000000E+00
  0.00000000E+00  0.00000000E+00  0.00000000E+00
  0.00000000E+00  0.00000000E+00  0.00000000E+00
  0.00000000E+00  0.00000000E+00  0.00000000E+00
  0.00000000E+00  0.00000000E+00  0.00000000E+00
  0.00000000E+00  0.00000000E+00  0.00000000E+00
  0.00000000E+00  0.00000000E+00  0.00000000E+00
  0.00000000E+00  0.00000000E+00  0.00000000E+00
  0.00000000E+00  0.00000000E+00  0.00000000E+00
  0.00000000E+00  0.00000000E+00  0.00000000E+00
  0.00000000E+00  0.00000000E+00  0.00000000E+00
  0.00000000E+00  0.00000000E+00  0.00000000E+00
  0.00000000E+00  0.00000000E+00  0.00000000E+00
  0.00000000E+00  0.00000000E+00  0.00000000E+00
  0.00000000E+00  0.00000000E+00  0.00000000E+00
  0.00000000E+00  0.00000000E+00  0.00000000E+00
  0.00000000E+00  0.00000000E+00  0.00000000E+00
  0.00000000E+00  0.00000000E+00  0.00000000E+00
  0.00000000E+00  0.00000000E+00  0.00000000E+00
  0.00000000E+00  0.00000000E+00  0.00000000E+00
  0.00000000E+00  0.00000000E+00  0.00000000E+00
  0.00000000E+00  0.00000000E+00  0.00000000E+00
  0.00000000E+00  0.00000000E+00  0.00000000E+00
  0.00000000E+00  0.00000000E+00  0.00000000E+00
  0.00000000E+00  0.00000000E+00  0.00000000E+00
  0.00000000E+00  0.00000000E+00  0.00000000E+00
  0.00000000E+00  0.00000000E+00  0.00000000E+00
  0.00000000E+00  0.00000000E+00  0.00000000E+00
  0.00000000E+00  0.00000000E+00  0.00000000E+00
  0.00000000E+00  0.00000000E+00  0.00000000E+00
  0.00000000E+00  0.00000000E+00  0.00000000E+00
  0.00000000E+00  0.00000000E+00  0.00000000E+00
  0.00000000E+00  0.00000000E+00  0.00000000E+00
  0.00000000E+00  0.00000000E+00  0.00000000E+00
  0.00000000E+00  0.00000000E+00  0.00000000E+00
  0.00000000E+00  0.00000000E+00  0.00000000E+00
  0.00000000E+00  0.00000000E+00  0.00000000E+00
  0.00000000E+00  0.00000000E+00  0.00000000E+00
  0.00000000E+00  0.00000000E+00  0.00000000E+00
  0.00000000E+00  0.00000000E+00  0.00000000E+00
  0.00000000E+00  0.00000000E+00  0.00000000E+00
  0.00000000E+00  0.00000000E+00  0.00000000E+00
  0.00000000E+00  0.00000000E+00  0.00000000E+00
  0.00000000E+00  0.00000000E+00  0.00000000E+00
  0.00000000E+00  0.00000000E+00  0.00000000E+00
  0.00000000E+00  0.00000000E+00  0.00000000E+00
  0.00000000E+00  0.00000000E+00  0.00000000E+00
  0.00000000E+00  0.00000000E+00  0.00000000E+00
  0.00000000E+00  0.00000000E+00  0.00000000E+00
  0.00000000E+00  0.00000000E+00  0.00000000E+00
  0.00000000E+00  0.00000000E+00  0.00000000E+00
  0.00000000E+00  0.00000000E+00  0.00000000E+00
  0.00000000E+00  0.00000000E+00  0.00000000E+00
  0.00000000E+00  0.00000000E+00  0.00000000E+00
  0.00000000E+00  0.00000000E+00  0.00000000E+00
  0.00000000E+00  0.00000000E+00  0.00000000E+00
  0.00000000E+00  0.00000000E+00  0.00000000E+00
  0.00000000E+00  0.00000000E+00  0.00000000E+00
  0.00000000E+00  0.00000000E+00  0.00000000E+00
  0.00000000E+00  0.00000000E+00  0.00000000E+00
  0.00000000E+00  0.00000000E+00  0.00000000E+00
  0.00000000E+00  0.00000000E+00  0.00000000E+00
  0.00000000E+00  0.00000000E+00  0.00000000E+00
  0.00000000E+00  0.00000000E+00  0.00000000E+00
  0.00000000E+00  0.00000000E+00  0.00000000E+00
  0.00000000E+00  0.00000000E+00  0.00000000E+00
  0.00000000E+00  0.00000000E+00  0.00000000E+00
  0.00000000E+00  0.00000000E+00  0.00000000E+00
  0.00000000E+00  0.00000000E+00  0.00000000E+00
  0.00000000E+00  0.00000000E+00  0.00000000E+00
  0.00000000E+00  0.00000000E+00  0.00000000E+00
  0.00000000E+00  0.00000000E+00  0.00000000E+00
  0.00000000E+00  0.00000000E+00  0.00000000E+00
  0.00000000E+00  0.00000000E+00  0.00000000E+00
  0.00000000E+00  0.00000000E+00  0.00000000E+00
  0.00000000E+00  0.00000000E+00  0.00000000E+00
  0.00000000E+00  0.00000000E+00  0.00000000E+00
  0.00000000E+00  0.00000000E+00  0.00000000E+00
  0.00000000E+00  0.00000000E+00  0.00000000E+00
  0.00000000E+00  0.00000000E+00  0.00000000E+00
  0.00000000E+00  0.00000000E+00  0.00000000E+00
  0.00000000E+00  0.00000000E+00  0.00000000E+00
  0.00000000E+00  0.00000000E+00  0.00000000E+00
  0.00000000E+00  0.00000000E+00  0.00000000E+00
  0.00000000E+00  0.00000000E+00  0.00000000E+00
  0.00000000E+00  0.00000000E+00  0.00000000E+00
  0.00000000E+00  0.00000000E+00  0.00000000E+00
  0.00000000E+00  0.00000000E+00  0.00000000E+00
  0.00000000E+00  0.00000000E+00  0.00000000E+00
  0.00000000E+00  0.00000000E+00  0.00000000E+00
  0.00000000E+00  0.00000000E+00  0.00000000E+00
  0.00000000E+00  0.00000000E+00  0.00000000E+00
  0.00000000E+00  0.00000000E+00  0.00000000E+00
  0.00000000E+00  0.00000000E+00  0.00000000E+00
  0.00000000E+00  0.00000000E+00  0.00000000E+00
  0.00000000E+00  0.00000000E+00  0.00000000E+00
  0.00000000E+00  0.00000000E+00  0.00000000E+00
  0.00000000E+00  0.00000000E+00  0.00000000E+00
  0.00000000E+00  0.00000000E+00  0.00000000E+00
  0.00000000E+00  0.00000000E+00  0.00000000E+00
  0.00000000E+00  0.00000000E+00  0.00000000E+00
  0.00000000E+00  0.00000000E+00  0.00000000E+00
  0.00000000E+00  0.00000000E+00  0.00000000E+00
  0.00000000E+00  0.00000000E+00  0.00000000E+00
  0.00000000E+00  0.00000000E+00  0.00000000E+00
  0.00000000E+00  0.00000000E+00  0.00000000E+00
  0.00000000E+00  0.00000000E+00  0.00000000E+00
  0.00000000E+00  0.00000000E+00  0.00000000E+00
  0.00000000E+00  0.00000000E+00  0.00000000E+00
  0.00000000E+00  0.00000000E+00  0.00000000E+00
  0.00000000E+00  0.00000000E+00  0.00000000E+00
  0.00000000E+00  0.00000000E+00  0.00000000E+00
  0.00000000E+00  0.00000000E+00  0.00000000E+00
  0.00000000E+00  0.00000000E+00  0.00000000E+00
  0.00000000E+00  0.00000000E+00  0.00000000E+00
  0.00000000E+00  0.00000000E+00  0.00000000E+00
  0.00000000E+00  0.00000000E+00  0.00000000E+00
  0.00000000E+00  0.00000000E+00  0.00000000E+00
