FeH_6                                   
   1.00000000000000     
    13.9937501877689918    0.0009168412564577   -0.0139812679178384
    -0.0023093197747315   32.2261132538111426    1.4103690515531462
    -0.0028018353911091    0.3056038496232519    5.4693753437629118
   C    Fe   H    N    O 
    80     4    32    24    16
Direct
  0.8407806969147487  0.9559278641258331  0.1058493399866336
  0.9208270008645485  0.9654277683793637  0.4498290357118861
  0.8358223783769603  0.8083499849198859  0.8990427548296012
  0.6592741829270139  0.4560057475573913  0.6045172600529867
  0.5846563258562369  0.2978330018174375  0.0542095110506722
  0.0799690024215067  0.7967944624848187  0.0571363894671180
  0.5792304937997486  0.4654374494130877  0.9479796312634505
  0.6641349396243186  0.3083079642129718  0.3974866658649319
  0.4144377009070581  0.4642567627074783  0.4482049612285834
  0.1600199035005332  0.8062567330235524  0.4011555899760566
  0.0855602197073964  0.9643296935987067  0.9507499167741713
  0.4201022749590919  0.2968619775404093  0.5536637165631362
  0.9152503747069147  0.7978049096150315  0.5564162953460965
  0.1650999522372274  0.9537376436174583  0.6083383218690415
  0.3400392194855542  0.3063946952325125  0.8969431231266327
  0.3349452804899045  0.4537995237721475  0.1049025264117702
  0.7633349144704056  0.0370263130312978  0.4489450719929451
  0.8662372799775042  0.0556685021933845  0.0781416105405341
  0.8576665146537366  0.7085297659248724  0.9300131410926795
  0.6335930143899873  0.5557429661255924  0.5774282765992851
  0.6419478953717217  0.2084825427685715  0.4281506238563892
  0.2371607241760074  0.7251466015624004  0.0574719585414059
  0.7365227012028868  0.5370632466010434  0.9489066100443750
  0.7448680619257857  0.2272074786649938  0.0574405426722819
  0.2541251560437772  0.5348360032254931  0.4461773949027830
  0.1341735728001865  0.7065097517078911  0.4281855904616023
  0.1429141407550958  0.0534566336234761  0.5763691197424663
  0.3661145283792777  0.2067141513497859  0.9255604601748999
  0.7547917878626578  0.7272736044976185  0.5584317244119532
  0.2457388163609409  0.0350397644700635  0.9483681229949852
  0.2629961442613791  0.2250931926665061  0.5540353377279317
  0.3569680406758380  0.5535510098949601  0.0753474958745812
  0.7318615900796601  0.0809650408518152  0.4372486026393716
  0.8359271497566354  0.0996014641051346  0.0798798581541647
  0.8269551573288894  0.6646644348987536  0.9285786330311367
  0.6637972521533015  0.5996806418171730  0.5797242927098907
  0.6726618593835454  0.1646092465543774  0.4270582904092493
  0.2682083872490963  0.6811645240549780  0.0683824161213167
  0.7678775337730386  0.5810100410802335  0.9377888100502005
  0.7767169163328873  0.1832940499141245  0.0697073071160403
  0.2224347490205361  0.5787644616236491  0.4342615656894608
  0.1639993289231114  0.6625341186221192  0.4255644907745761
  0.1733777626750594  0.0973648381029619  0.5768693603974100
  0.3362395619525742  0.1627239422271671  0.9240525980598449
  0.7228720945740505  0.6833739667493575  0.5704837689882112
  0.2775734352226920  0.0789571055537905  0.9351012768315456
  0.2319302836809598  0.1810989840217658  0.5659840953140503
  0.3266087219156759  0.5974465939599014  0.0771273446396776
  0.6655189855092942  0.0928127295835068  0.6066013531670009
  0.8728125761070302  0.1298356976267243  0.9060775922499005
  0.8637039426921334  0.6344415870135123  0.1029042960978828
  0.6268550632698151  0.6299291794767754  0.4058024726877392
  0.6359395383204287  0.1344132915070233  0.6012904621208079
  0.3344644463859794  0.6692918755694492  0.8988862079477400
  0.8342030206106443  0.5928405708852509  0.1076927389190985
  0.8432623280355074  0.1714502559519531  0.9008618677620177
  0.1559695318960905  0.5906221171158066  0.6032930071440319
  0.1268145608516420  0.6322783950329409  0.5987793219026969
  0.1363740070986452  0.1274505689051111  0.4021123380746729
  0.3733413927554068  0.1326059761897014  0.0985054357760831
  0.6563587911527762  0.6715473672646581  0.4009940327205612
  0.3440424898096168  0.0909524654528795  0.1042240026742718
  0.1655941860290469  0.1691026630249297  0.3965583484067636
  0.3636053002267303  0.6276457460604661  0.9033592356059614
  0.8593895378007730  0.9850366886536506  0.2730200697746170
  0.8527561942120201  0.7789531156226701  0.7327042652810292
  0.6406332243873294  0.4850833927716351  0.7717479730542891
  0.6470544539748673  0.2789227009656727  0.2310441952134212
  0.1413716658533346  0.7771639208253092  0.2338985174836097
  0.3517821859579939  0.4831202618803090  0.2718828180787014
  0.1481729391306601  0.9831446012747875  0.7746429472009666
  0.3586809001983866  0.2772708699600344  0.7300151580518417
  0.7692695218146071  0.1109358022537990  0.2560117677005067
  0.7602985208829125  0.6533749371809563  0.7518549782172883
  0.7304085273213801  0.6110022784699680  0.7564592320539560
  0.7393258384684813  0.1533068157984161  0.2509096549930021
  0.2305078388059485  0.6511826787028028  0.2491353765464481
  0.2600623566323108  0.6087731624864503  0.2534939894406492
  0.2400069215521867  0.1088262161700086  0.7531613457980200
  0.2696550852388668  0.1512374221754342  0.7476867552880506
  0.9687034424163627  0.8812808838210202  0.0032078736281633
  0.0320151314210833  0.8808728939472843  0.5040687461302369
  0.5315143806024523  0.3813166266050700  0.5005065606832488
  0.4680712786391510  0.3809412228766433  0.0007866052778667
  0.4246266123699058  0.1423523324920808  0.2315418255336610
  0.8620651770615382  0.5689965447674723  0.2442917817338923
  0.8711555223082073  0.1952672037426169  0.7643841180385209
  0.6377394829459391  0.0689957523563933  0.7432364665570077
  0.6284559550923703  0.6953750820195168  0.2643735879208862
  0.5754812532987899  0.6203193714553237  0.2725850281918838
  0.0755225203612113  0.6419198669472834  0.7317230860868236
  0.0850762014590529  0.1176885835482722  0.2691741730927788
  0.9150470576477119  0.6440696919373039  0.2361482509200243
  0.1375261590882388  0.1928534115502742  0.2596989264609846
  0.1279020958948749  0.5667904811302407  0.7394329839383644
  0.3625360306733967  0.6931292726653382  0.7628196746936666
  0.4148146970148048  0.6179713794393109  0.7703335832119151
  0.5845913399662024  0.1440557837003524  0.7340844465391498
  0.9242036403440963  0.1202158598314185  0.7733085943250089
  0.3719785354539127  0.0672273419463423  0.2414437810189796
  0.5471856138169002  0.4776926166481630  0.1060942680396550
  0.4521276076984222  0.2845542376119425  0.3956929609584066
  0.2922004104124412  0.4565527256380832  0.9382978005158265
  0.2026057169213971  0.8029899121626443  0.5679971838575781
  0.0542178142102330  0.9770905198072342  0.1081728260851378
  0.2974596991354872  0.3031644222662138  0.0634696169609086
  0.7981802585317723  0.9591739331801961  0.9390362229468252
  0.9465429501413141  0.7850699462916708  0.3988368603143329
  0.2078643116622985  0.9564138329858451  0.4421104005291099
  0.7018588644660966  0.4592799592798400  0.4380035183199311
  0.5533108627361685  0.2851206157610164  0.8964015699608083
  0.9528506780001322  0.9777182205705586  0.6081001934569414
  0.7068657231286153  0.3055742636722840  0.5641119847892924
  0.4457726932647859  0.4769535225151103  0.6060991088436296
  0.0479503964074226  0.7845127570631902  0.8988214247219659
  0.7930452205451459  0.8056526932745953  0.0652442092419747
  0.8888428275997384  0.9205912545230532  0.1800688101141219
  0.9380171726494595  0.9265585655601924  0.3910937458093713
  0.8858457239639677  0.8431346853695274  0.8249107221029561
  0.6112811062525978  0.4206511834774389  0.6782186496834655
  0.5654500599486099  0.3365703668166873  0.1122716952612421
  0.0628074234034628  0.8356576439703005  0.1159524764917634
  0.5621064470503256  0.4265790642529410  0.8889084250300598
  0.6142591982269323  0.3431383152430243  0.3229136047053416
  0.4339636457527334  0.4255930857292824  0.3894386855987619
  0.1119795120240639  0.8416046241498094  0.3270129968716446
  0.0661378687166874  0.9256146228521231  0.8924896346651110
  0.4372874314239610  0.3357305772355019  0.6124410719985178
  0.9346215158476312  0.8365241297164516  0.6146729477932453
  0.1149714887682336  0.9189777379467969  0.6823859744259977
  0.3881007888113501  0.3417212610916138  0.8230270896720739
  0.3851569908210664  0.4190331617808951  0.1788132389304451
  0.8269929201942787  0.0269517663482546  0.2634429599387786
  0.8188379436746516  0.7372509417292861  0.7438161655931452
  0.6729390115251874  0.5270041919672579  0.7627536021269066
  0.6808325186610986  0.2371987459329716  0.2423261533659087
  0.1736180963849634  0.7352326747950855  0.2432097889826821
  0.3179769580121032  0.5248287838858587  0.2609668334313966
  0.1819135378558201  0.0248681908551305  0.7630201466720195
  0.3265771554766843  0.2353178076255276  0.7397905327802334
  0.7359000616817610  0.0102307117870524  0.6089753733599110
  0.9222737294990395  0.0442538460796342  0.9255099237073026
  0.9138594569667333  0.7198868263258902  0.0829081408091383
  0.5775843816726791  0.5443313785342880  0.4242962706726985
  0.5857749906830279  0.2198553671003580  0.5806307215972666
  0.2648237100742179  0.7519675781858339  0.8978772223257110
  0.7640248936961456  0.5102448857645356  0.1089568453383052
  0.7721089291622150  0.2540119016269031  0.8972449414821426
  0.2269006825745379  0.5080388242384544  0.6064308896739377
  0.0783845978519224  0.7179687147720770  0.5812612894728417
  0.0867521439712817  0.0419599904046422  0.4238434871829213
  0.4220163344839349  0.2182768049647024  0.0784764982864417
  0.7276105590841269  0.7540814400350158  0.3979588838701673
  0.2728560791296317  0.0083896518846274  0.1098109909040019
  0.2353197028753868  0.2517978091013831  0.3935637016983407
  0.4130034441953327  0.5421651396230018  0.9226090186094993
 
  0.00000000E+00  0.00000000E+00  0.00000000E+00
  0.00000000E+00  0.00000000E+00  0.00000000E+00
  0.00000000E+00  0.00000000E+00  0.00000000E+00
  0.00000000E+00  0.00000000E+00  0.00000000E+00
  0.00000000E+00  0.00000000E+00  0.00000000E+00
  0.00000000E+00  0.00000000E+00  0.00000000E+00
  0.00000000E+00  0.00000000E+00  0.00000000E+00
  0.00000000E+00  0.00000000E+00  0.00000000E+00
  0.00000000E+00  0.00000000E+00  0.00000000E+00
  0.00000000E+00  0.00000000E+00  0.00000000E+00
  0.00000000E+00  0.00000000E+00  0.00000000E+00
  0.00000000E+00  0.00000000E+00  0.00000000E+00
  0.00000000E+00  0.00000000E+00  0.00000000E+00
  0.00000000E+00  0.00000000E+00  0.00000000E+00
  0.00000000E+00  0.00000000E+00  0.00000000E+00
  0.00000000E+00  0.00000000E+00  0.00000000E+00
  0.00000000E+00  0.00000000E+00  0.00000000E+00
  0.00000000E+00  0.00000000E+00  0.00000000E+00
  0.00000000E+00  0.00000000E+00  0.00000000E+00
  0.00000000E+00  0.00000000E+00  0.00000000E+00
  0.00000000E+00  0.00000000E+00  0.00000000E+00
  0.00000000E+00  0.00000000E+00  0.00000000E+00
  0.00000000E+00  0.00000000E+00  0.00000000E+00
  0.00000000E+00  0.00000000E+00  0.00000000E+00
  0.00000000E+00  0.00000000E+00  0.00000000E+00
  0.00000000E+00  0.00000000E+00  0.00000000E+00
  0.00000000E+00  0.00000000E+00  0.00000000E+00
  0.00000000E+00  0.00000000E+00  0.00000000E+00
  0.00000000E+00  0.00000000E+00  0.00000000E+00
  0.00000000E+00  0.00000000E+00  0.00000000E+00
  0.00000000E+00  0.00000000E+00  0.00000000E+00
  0.00000000E+00  0.00000000E+00  0.00000000E+00
  0.00000000E+00  0.00000000E+00  0.00000000E+00
  0.00000000E+00  0.00000000E+00  0.00000000E+00
  0.00000000E+00  0.00000000E+00  0.00000000E+00
  0.00000000E+00  0.00000000E+00  0.00000000E+00
  0.00000000E+00  0.00000000E+00  0.00000000E+00
  0.00000000E+00  0.00000000E+00  0.00000000E+00
  0.00000000E+00  0.00000000E+00  0.00000000E+00
  0.00000000E+00  0.00000000E+00  0.00000000E+00
  0.00000000E+00  0.00000000E+00  0.00000000E+00
  0.00000000E+00  0.00000000E+00  0.00000000E+00
  0.00000000E+00  0.00000000E+00  0.00000000E+00
  0.00000000E+00  0.00000000E+00  0.00000000E+00
  0.00000000E+00  0.00000000E+00  0.00000000E+00
  0.00000000E+00  0.00000000E+00  0.00000000E+00
  0.00000000E+00  0.00000000E+00  0.00000000E+00
  0.00000000E+00  0.00000000E+00  0.00000000E+00
  0.00000000E+00  0.00000000E+00  0.00000000E+00
  0.00000000E+00  0.00000000E+00  0.00000000E+00
  0.00000000E+00  0.00000000E+00  0.00000000E+00
  0.00000000E+00  0.00000000E+00  0.00000000E+00
  0.00000000E+00  0.00000000E+00  0.00000000E+00
  0.00000000E+00  0.00000000E+00  0.00000000E+00
  0.00000000E+00  0.00000000E+00  0.00000000E+00
  0.00000000E+00  0.00000000E+00  0.00000000E+00
  0.00000000E+00  0.00000000E+00  0.00000000E+00
  0.00000000E+00  0.00000000E+00  0.00000000E+00
  0.00000000E+00  0.00000000E+00  0.00000000E+00
  0.00000000E+00  0.00000000E+00  0.00000000E+00
  0.00000000E+00  0.00000000E+00  0.00000000E+00
  0.00000000E+00  0.00000000E+00  0.00000000E+00
  0.00000000E+00  0.00000000E+00  0.00000000E+00
  0.00000000E+00  0.00000000E+00  0.00000000E+00
  0.00000000E+00  0.00000000E+00  0.00000000E+00
  0.00000000E+00  0.00000000E+00  0.00000000E+00
  0.00000000E+00  0.00000000E+00  0.00000000E+00
  0.00000000E+00  0.00000000E+00  0.00000000E+00
  0.00000000E+00  0.00000000E+00  0.00000000E+00
  0.00000000E+00  0.00000000E+00  0.00000000E+00
  0.00000000E+00  0.00000000E+00  0.00000000E+00
  0.00000000E+00  0.00000000E+00  0.00000000E+00
  0.00000000E+00  0.00000000E+00  0.00000000E+00
  0.00000000E+00  0.00000000E+00  0.00000000E+00
  0.00000000E+00  0.00000000E+00  0.00000000E+00
  0.00000000E+00  0.00000000E+00  0.00000000E+00
  0.00000000E+00  0.00000000E+00  0.00000000E+00
  0.00000000E+00  0.00000000E+00  0.00000000E+00
  0.00000000E+00  0.00000000E+00  0.00000000E+00
  0.00000000E+00  0.00000000E+00  0.00000000E+00
  0.00000000E+00  0.00000000E+00  0.00000000E+00
  0.00000000E+00  0.00000000E+00  0.00000000E+00
  0.00000000E+00  0.00000000E+00  0.00000000E+00
  0.00000000E+00  0.00000000E+00  0.00000000E+00
  0.00000000E+00  0.00000000E+00  0.00000000E+00
  0.00000000E+00  0.00000000E+00  0.00000000E+00
  0.00000000E+00  0.00000000E+00  0.00000000E+00
  0.00000000E+00  0.00000000E+00  0.00000000E+00
  0.00000000E+00  0.00000000E+00  0.00000000E+00
  0.00000000E+00  0.00000000E+00  0.00000000E+00
  0.00000000E+00  0.00000000E+00  0.00000000E+00
  0.00000000E+00  0.00000000E+00  0.00000000E+00
  0.00000000E+00  0.00000000E+00  0.00000000E+00
  0.00000000E+00  0.00000000E+00  0.00000000E+00
  0.00000000E+00  0.00000000E+00  0.00000000E+00
  0.00000000E+00  0.00000000E+00  0.00000000E+00
  0.00000000E+00  0.00000000E+00  0.00000000E+00
  0.00000000E+00  0.00000000E+00  0.00000000E+00
  0.00000000E+00  0.00000000E+00  0.00000000E+00
  0.00000000E+00  0.00000000E+00  0.00000000E+00
  0.00000000E+00  0.00000000E+00  0.00000000E+00
  0.00000000E+00  0.00000000E+00  0.00000000E+00
  0.00000000E+00  0.00000000E+00  0.00000000E+00
  0.00000000E+00  0.00000000E+00  0.00000000E+00
  0.00000000E+00  0.00000000E+00  0.00000000E+00
  0.00000000E+00  0.00000000E+00  0.00000000E+00
  0.00000000E+00  0.00000000E+00  0.00000000E+00
  0.00000000E+00  0.00000000E+00  0.00000000E+00
  0.00000000E+00  0.00000000E+00  0.00000000E+00
  0.00000000E+00  0.00000000E+00  0.00000000E+00
  0.00000000E+00  0.00000000E+00  0.00000000E+00
  0.00000000E+00  0.00000000E+00  0.00000000E+00
  0.00000000E+00  0.00000000E+00  0.00000000E+00
  0.00000000E+00  0.00000000E+00  0.00000000E+00
  0.00000000E+00  0.00000000E+00  0.00000000E+00
  0.00000000E+00  0.00000000E+00  0.00000000E+00
  0.00000000E+00  0.00000000E+00  0.00000000E+00
  0.00000000E+00  0.00000000E+00  0.00000000E+00
  0.00000000E+00  0.00000000E+00  0.00000000E+00
  0.00000000E+00  0.00000000E+00  0.00000000E+00
  0.00000000E+00  0.00000000E+00  0.00000000E+00
  0.00000000E+00  0.00000000E+00  0.00000000E+00
  0.00000000E+00  0.00000000E+00  0.00000000E+00
  0.00000000E+00  0.00000000E+00  0.00000000E+00
  0.00000000E+00  0.00000000E+00  0.00000000E+00
  0.00000000E+00  0.00000000E+00  0.00000000E+00
  0.00000000E+00  0.00000000E+00  0.00000000E+00
  0.00000000E+00  0.00000000E+00  0.00000000E+00
  0.00000000E+00  0.00000000E+00  0.00000000E+00
  0.00000000E+00  0.00000000E+00  0.00000000E+00
  0.00000000E+00  0.00000000E+00  0.00000000E+00
  0.00000000E+00  0.00000000E+00  0.00000000E+00
  0.00000000E+00  0.00000000E+00  0.00000000E+00
  0.00000000E+00  0.00000000E+00  0.00000000E+00
  0.00000000E+00  0.00000000E+00  0.00000000E+00
  0.00000000E+00  0.00000000E+00  0.00000000E+00
  0.00000000E+00  0.00000000E+00  0.00000000E+00
  0.00000000E+00  0.00000000E+00  0.00000000E+00
  0.00000000E+00  0.00000000E+00  0.00000000E+00
  0.00000000E+00  0.00000000E+00  0.00000000E+00
  0.00000000E+00  0.00000000E+00  0.00000000E+00
  0.00000000E+00  0.00000000E+00  0.00000000E+00
  0.00000000E+00  0.00000000E+00  0.00000000E+00
  0.00000000E+00  0.00000000E+00  0.00000000E+00
  0.00000000E+00  0.00000000E+00  0.00000000E+00
  0.00000000E+00  0.00000000E+00  0.00000000E+00
  0.00000000E+00  0.00000000E+00  0.00000000E+00
  0.00000000E+00  0.00000000E+00  0.00000000E+00
  0.00000000E+00  0.00000000E+00  0.00000000E+00
  0.00000000E+00  0.00000000E+00  0.00000000E+00
  0.00000000E+00  0.00000000E+00  0.00000000E+00
  0.00000000E+00  0.00000000E+00  0.00000000E+00
  0.00000000E+00  0.00000000E+00  0.00000000E+00
  0.00000000E+00  0.00000000E+00  0.00000000E+00
  0.00000000E+00  0.00000000E+00  0.00000000E+00
  0.00000000E+00  0.00000000E+00  0.00000000E+00
