Zn_H                                    
   1.00000000000000     
    14.1073378221568753   -0.0010277211387002   -0.0100962471724781
     0.0024807352638088   31.6986790746625715   -2.1665743807465923
    -0.0042744464290374   -0.4088097690983213    6.6008007862809119
   C    Zn   H    N    O 
    80     4    32    24    16
Direct
  0.9293031058229531  0.9599462300365502  0.1239911811405250
  0.8494037667603962  0.9513608626769354  0.4061596239727194
  0.9308491217715869  0.7956220916454839  0.9184356884729112
  0.5704303328569225  0.4599052911129107  0.6247143430026583
  0.6493063383349451  0.3040434850115190  0.1372696229183106
  0.1505519544421219  0.8045085235756702  0.1376089037624979
  0.6502698713849995  0.4514088943865318  0.9075294876169195
  0.5689070204355318  0.2956014205350996  0.4190126012330779
  0.3501732626178935  0.4517025747209118  0.4073806308391568
  0.0705017105704968  0.7959918267359498  0.4196784790708676
  0.1496173139629775  0.9516971811112853  0.9073718879504824
  0.3492164857052771  0.3044296505804240  0.6373305138131116
  0.8504022752748526  0.8039490373184535  0.6361486673798709
  0.0692449347028443  0.9602672019215390  0.6253082993884078
  0.4292560296423957  0.2959696688537647  0.9199655144473269
  0.4304179048509909  0.4602847182286851  0.1256387532531704
  0.7737249179807080  0.0307448783866917  0.1038375406115364
  0.8608596416752334  0.0526968936736765  0.4323760693414158
  0.8628618037362372  0.7025580243271463  0.6110197475776502
  0.6391386892737145  0.5527122155615345  0.9331817566180902
  0.6366889725022560  0.2026347619838447  0.1111181556989820
  0.2255758194554573  0.7250944894917026  0.4412659661477107
  0.7259691821570868  0.5306813886965642  0.6048489330703362
  0.7233261422512953  0.2244954183625723  0.4403302951535792
  0.2751731917716569  0.5312286951511709  0.1056031086211178
  0.1388918002560899  0.7031880453285879  0.1121434521693914
  0.1379823893010652  0.0530678187405726  0.9343681569453466
  0.3607756508735136  0.2031354470703448  0.6120505476609210
  0.7765015577876753  0.7245212216527506  0.9399391735062395
  0.2244038701796214  0.0311876902421702  0.6054313380636103
  0.2742287011663365  0.2250740768515556  0.9408721589128888
  0.3619479472190221  0.5530846175715070  0.4346105455783302
  0.7397356971794693  0.0750682671998035  0.1084351998585262
  0.8243251676834475  0.0964776470016844  0.4318723489504706
  0.8266374694740151  0.6587364298223264  0.6122253049311226
  0.6756387535616142  0.5964986553667799  0.9324363139801406
  0.6730002849470722  0.1588137874640765  0.1119191414757097
  0.2593090757447811  0.6807276636797468  0.4370679460857403
  0.7599839766066765  0.5749951252863497  0.6093117692885102
  0.7574636637972176  0.1801937984987561  0.4355392189710940
  0.2412682596635634  0.5755677778530597  0.1102426701084127
  0.1749872093424685  0.6593540511872433  0.1132835611983438
  0.1742103924765530  0.0968944596233570  0.9335590286795536
  0.3246931250883947  0.1593024885539904  0.6132045355561857
  0.7424245707004573  0.6802146771274664  0.9355102382322329
  0.2583741371472144  0.0755156057159070  0.6101329912827040
  0.2405302432424961  0.1807044182591326  0.9366752349996830
  0.3256814789837250  0.5969141363679356  0.4339021506776177
  0.6821163694787060  0.0856971340448140  0.9520956919485215
  0.8486021065321623  0.1278785795469659  0.5898058185020219
  0.8508185196698577  0.6272846414846498  0.4546241829438742
  0.6515069449909703  0.6279377962714108  0.0901511066456138
  0.6487834172885414  0.1274125424900845  0.9539286115331365
  0.3166603191475090  0.6700382113269256  0.5937324110332085
  0.8175287156651478  0.5855704544540075  0.4530776811831032
  0.8152011271909316  0.1695836954948788  0.5917374502884201
  0.1837189757943278  0.5862103609014397  0.9538420945098878
  0.1506132758916507  0.6279519499828581  0.9554469591573067
  0.1501071324404037  0.1282907733173175  0.0914802073301217
  0.3490017322741323  0.1278798033875290  0.4555638728185230
  0.6848596414648540  0.6696453934448741  0.0917598573039413
  0.3158672129990308  0.0861410791162101  0.4539234981752003
  0.1832537147330129  0.1700320803025122  0.0931594849807453
  0.3498298838990550  0.6282916467352564  0.5920284532114479
  0.8659087159763175  0.9801082318505223  0.2670319820890938
  0.8675279042916983  0.7752652708929588  0.7754239021603127
  0.6338194189178381  0.4801040803768046  0.7680531847582301
  0.6321728938921964  0.2752956634270589  0.2761103312465494
  0.1340188687831372  0.7758102081305935  0.2769975276787449
  0.3670950040811789  0.4805028698939324  0.2687172349251483
  0.1326623200279187  0.9804834653021288  0.7685743598757284
  0.3657790061332094  0.2757539704242333  0.7768972685707141
  0.7654462251905656  0.1064564279524376  0.2711381557297443
  0.7679852613631510  0.6487871781051311  0.7730454878700712
  0.7343556545067287  0.6064336681523770  0.7717010345377133
  0.7317952683474047  0.1488157318194041  0.2727647380795872
  0.2336177790158303  0.6493403304509613  0.2743276996538171
  0.2670393983704997  0.6069494588574145  0.2729152207194403
  0.2327293873402567  0.1069156897601147  0.7726754975573726
  0.2661455165762447  0.1493044415226450  0.7740890582709739
  0.0360351817177786  0.8779601438048985  0.0215706675533269
  0.9637209573438454  0.8779025283188844  0.5215229438449214
  0.4636356661578418  0.3779101396109965  0.5219649928582939
  0.5359047971764852  0.3779520754630994  0.0223684138135880
  0.3940053964753147  0.1365308964250644  0.3335812628958550
  0.8360015832778700  0.5607165242329231  0.3299793355890799
  0.8337682406083218  0.1944123871996766  0.7149840832243015
  0.6636105046514587  0.0608776841979264  0.8287607704674613
  0.6663796085391738  0.6945061883821495  0.2148235828842076
  0.6064329378395428  0.6193327006259963  0.2121151316575407
  0.1055762288194657  0.6366185307995380  0.8333020468889387
  0.1052158805028256  0.1196349521969253  0.2136182428853459
  0.8958593002863111  0.6358794351584152  0.3325840814446437
  0.1648111773321261  0.1948529641571852  0.2164403762977045
  0.1650927971953564  0.5613847451784935  0.8306380954239003
  0.3351580590833692  0.6948391071929905  0.7171893851636781
  0.3948184258566840  0.6196299136007042  0.7142612204481296
  0.6036643813198097  0.1360456503207246  0.8318583094646783
  0.8938151965309302  0.1192358372301499  0.7117244105681735
  0.3344512493904261  0.0613135387213362  0.3308097852517378
  0.6924686781349720  0.4549275907616774  0.0462231967629023
  0.3068431096549418  0.3008996876672185  0.4988895627591461
  0.4618252418307875  0.4719284591012425  0.9939749999050491
  0.0393049508992362  0.7843892027245047  0.5516521404425632
  0.1920696737461469  0.9551775365353663  0.0456944087793758
  0.4604692633510368  0.2843979879524525  0.0521698373032677
  0.9604439766067330  0.9715827311502281  0.9920287108214794
  0.8079496276817366  0.8003310249665105  0.4978057012306749
  0.0378203005730668  0.9719150943344559  0.4934985252051689
  0.5393535177805404  0.4714952342849656  0.4924162903768377
  0.6917461030916314  0.3004781293689689  0.9991661027047982
  0.8071694341232600  0.9548349364753435  0.5445563653214052
  0.5374311618358050  0.2840166271369569  0.5507593540085409
  0.3078035059309912  0.4551887021923946  0.5455707055644154
  0.1929599119673213  0.8010062717208086  0.9994561412725460
  0.9623683802179102  0.7840813210984408  0.0504099901463064
  0.9498130149498181  0.9214245637639564  0.1753878307097096
  0.9002576811374254  0.9158549183883835  0.3479909983507881
  0.9507416370820820  0.8341825795119533  0.8668985387778179
  0.5498615480569953  0.4214125599740512  0.6762740180510534
  0.5988765041058244  0.3396837035966627  0.1953907063247442
  0.0995774438031205  0.8400049304363009  0.1952957187601356
  0.5993863631961602  0.4158972324528776  0.8492645609593552
  0.5490295467934914  0.3341948341694021  0.3677425282540199
  0.4007174520510830  0.4161223201305475  0.3489829541310385
  0.0499489059859499  0.8344712062690007  0.3678520430726948
  0.0990020021592031  0.9161238095680773  0.8488354017778406
  0.4001372496407143  0.3399497424424709  0.6952890583654820
  0.9008637664217787  0.8396001530290462  0.6942097030939607
  0.0491418968222348  0.9216797672301666  0.6763138234064101
  0.4497576226559303  0.3344514502473928  0.8681950020606379
  0.4505016610130710  0.4216895925364099  0.1766778887023861
  0.8301119660318861  0.0220875620692027  0.2709901504108032
  0.8321628392292766  0.7332183327144648  0.7720623391121109
  0.6696776900272710  0.5220679672663024  0.7719056127956136
  0.6675241185118566  0.2332439059030804  0.2724494965948665
  0.1696664843104472  0.7338085316082754  0.2734528176758033
  0.3314514916593438  0.5225160630123824  0.2728064289418484
  0.1683193930509859  0.0224888407586974  0.7726439281505293
  0.3301274319688332  0.2337575882708478  0.7732925740075274
  0.7542641316679735  0.0027554113984465  0.9640695306576603
  0.9147397330355105  0.0431451850417730  0.5653159448634426
  0.9164042472284279  0.7121038419382941  0.4777866310899981
  0.5854330231620111  0.5431883320224529  0.0661881009948502
  0.5829538667061911  0.2122199164974958  0.9780063808361632
  0.2448503818803260  0.7530796467473237  0.5811747516046211
  0.7453080363360769  0.5026627503753360  0.4652500232331960
  0.7422314694698500  0.2524043296992318  0.5808547927634606
  0.2557513205135464  0.5032697705054545  0.9656758595169777
  0.0853302932228317  0.7127629830615874  0.9786961919529702
  0.0846357165800242  0.0434625549055383  0.0678229707159375
  0.4141881352925267  0.2127147908278033  0.4786606867803300
  0.7576624586943623  0.7524785049236513  0.0801608628596924
  0.2436118642700293  0.0032332661624395  0.4654707726358893
  0.2549485860135121  0.2530847527243694  0.0805627049881039
  0.4154507348810270  0.5434706325686989  0.5680702972812455
 
  0.00000000E+00  0.00000000E+00  0.00000000E+00
  0.00000000E+00  0.00000000E+00  0.00000000E+00
  0.00000000E+00  0.00000000E+00  0.00000000E+00
  0.00000000E+00  0.00000000E+00  0.00000000E+00
  0.00000000E+00  0.00000000E+00  0.00000000E+00
  0.00000000E+00  0.00000000E+00  0.00000000E+00
  0.00000000E+00  0.00000000E+00  0.00000000E+00
  0.00000000E+00  0.00000000E+00  0.00000000E+00
  0.00000000E+00  0.00000000E+00  0.00000000E+00
  0.00000000E+00  0.00000000E+00  0.00000000E+00
  0.00000000E+00  0.00000000E+00  0.00000000E+00
  0.00000000E+00  0.00000000E+00  0.00000000E+00
  0.00000000E+00  0.00000000E+00  0.00000000E+00
  0.00000000E+00  0.00000000E+00  0.00000000E+00
  0.00000000E+00  0.00000000E+00  0.00000000E+00
  0.00000000E+00  0.00000000E+00  0.00000000E+00
  0.00000000E+00  0.00000000E+00  0.00000000E+00
  0.00000000E+00  0.00000000E+00  0.00000000E+00
  0.00000000E+00  0.00000000E+00  0.00000000E+00
  0.00000000E+00  0.00000000E+00  0.00000000E+00
  0.00000000E+00  0.00000000E+00  0.00000000E+00
  0.00000000E+00  0.00000000E+00  0.00000000E+00
  0.00000000E+00  0.00000000E+00  0.00000000E+00
  0.00000000E+00  0.00000000E+00  0.00000000E+00
  0.00000000E+00  0.00000000E+00  0.00000000E+00
  0.00000000E+00  0.00000000E+00  0.00000000E+00
  0.00000000E+00  0.00000000E+00  0.00000000E+00
  0.00000000E+00  0.00000000E+00  0.00000000E+00
  0.00000000E+00  0.00000000E+00  0.00000000E+00
  0.00000000E+00  0.00000000E+00  0.00000000E+00
  0.00000000E+00  0.00000000E+00  0.00000000E+00
  0.00000000E+00  0.00000000E+00  0.00000000E+00
  0.00000000E+00  0.00000000E+00  0.00000000E+00
  0.00000000E+00  0.00000000E+00  0.00000000E+00
  0.00000000E+00  0.00000000E+00  0.00000000E+00
  0.00000000E+00  0.00000000E+00  0.00000000E+00
  0.00000000E+00  0.00000000E+00  0.00000000E+00
  0.00000000E+00  0.00000000E+00  0.00000000E+00
  0.00000000E+00  0.00000000E+00  0.00000000E+00
  0.00000000E+00  0.00000000E+00  0.00000000E+00
  0.00000000E+00  0.00000000E+00  0.00000000E+00
  0.00000000E+00  0.00000000E+00  0.00000000E+00
  0.00000000E+00  0.00000000E+00  0.00000000E+00
  0.00000000E+00  0.00000000E+00  0.00000000E+00
  0.00000000E+00  0.00000000E+00  0.00000000E+00
  0.00000000E+00  0.00000000E+00  0.00000000E+00
  0.00000000E+00  0.00000000E+00  0.00000000E+00
  0.00000000E+00  0.00000000E+00  0.00000000E+00
  0.00000000E+00  0.00000000E+00  0.00000000E+00
  0.00000000E+00  0.00000000E+00  0.00000000E+00
  0.00000000E+00  0.00000000E+00  0.00000000E+00
  0.00000000E+00  0.00000000E+00  0.00000000E+00
  0.00000000E+00  0.00000000E+00  0.00000000E+00
  0.00000000E+00  0.00000000E+00  0.00000000E+00
  0.00000000E+00  0.00000000E+00  0.00000000E+00
  0.00000000E+00  0.00000000E+00  0.00000000E+00
  0.00000000E+00  0.00000000E+00  0.00000000E+00
  0.00000000E+00  0.00000000E+00  0.00000000E+00
  0.00000000E+00  0.00000000E+00  0.00000000E+00
  0.00000000E+00  0.00000000E+00  0.00000000E+00
  0.00000000E+00  0.00000000E+00  0.00000000E+00
  0.00000000E+00  0.00000000E+00  0.00000000E+00
  0.00000000E+00  0.00000000E+00  0.00000000E+00
  0.00000000E+00  0.00000000E+00  0.00000000E+00
  0.00000000E+00  0.00000000E+00  0.00000000E+00
  0.00000000E+00  0.00000000E+00  0.00000000E+00
  0.00000000E+00  0.00000000E+00  0.00000000E+00
  0.00000000E+00  0.00000000E+00  0.00000000E+00
  0.00000000E+00  0.00000000E+00  0.00000000E+00
  0.00000000E+00  0.00000000E+00  0.00000000E+00
  0.00000000E+00  0.00000000E+00  0.00000000E+00
  0.00000000E+00  0.00000000E+00  0.00000000E+00
  0.00000000E+00  0.00000000E+00  0.00000000E+00
  0.00000000E+00  0.00000000E+00  0.00000000E+00
  0.00000000E+00  0.00000000E+00  0.00000000E+00
  0.00000000E+00  0.00000000E+00  0.00000000E+00
  0.00000000E+00  0.00000000E+00  0.00000000E+00
  0.00000000E+00  0.00000000E+00  0.00000000E+00
  0.00000000E+00  0.00000000E+00  0.00000000E+00
  0.00000000E+00  0.00000000E+00  0.00000000E+00
  0.00000000E+00  0.00000000E+00  0.00000000E+00
  0.00000000E+00  0.00000000E+00  0.00000000E+00
  0.00000000E+00  0.00000000E+00  0.00000000E+00
  0.00000000E+00  0.00000000E+00  0.00000000E+00
  0.00000000E+00  0.00000000E+00  0.00000000E+00
  0.00000000E+00  0.00000000E+00  0.00000000E+00
  0.00000000E+00  0.00000000E+00  0.00000000E+00
  0.00000000E+00  0.00000000E+00  0.00000000E+00
  0.00000000E+00  0.00000000E+00  0.00000000E+00
  0.00000000E+00  0.00000000E+00  0.00000000E+00
  0.00000000E+00  0.00000000E+00  0.00000000E+00
  0.00000000E+00  0.00000000E+00  0.00000000E+00
  0.00000000E+00  0.00000000E+00  0.00000000E+00
  0.00000000E+00  0.00000000E+00  0.00000000E+00
  0.00000000E+00  0.00000000E+00  0.00000000E+00
  0.00000000E+00  0.00000000E+00  0.00000000E+00
  0.00000000E+00  0.00000000E+00  0.00000000E+00
  0.00000000E+00  0.00000000E+00  0.00000000E+00
  0.00000000E+00  0.00000000E+00  0.00000000E+00
  0.00000000E+00  0.00000000E+00  0.00000000E+00
  0.00000000E+00  0.00000000E+00  0.00000000E+00
  0.00000000E+00  0.00000000E+00  0.00000000E+00
  0.00000000E+00  0.00000000E+00  0.00000000E+00
  0.00000000E+00  0.00000000E+00  0.00000000E+00
  0.00000000E+00  0.00000000E+00  0.00000000E+00
  0.00000000E+00  0.00000000E+00  0.00000000E+00
  0.00000000E+00  0.00000000E+00  0.00000000E+00
  0.00000000E+00  0.00000000E+00  0.00000000E+00
  0.00000000E+00  0.00000000E+00  0.00000000E+00
  0.00000000E+00  0.00000000E+00  0.00000000E+00
  0.00000000E+00  0.00000000E+00  0.00000000E+00
  0.00000000E+00  0.00000000E+00  0.00000000E+00
  0.00000000E+00  0.00000000E+00  0.00000000E+00
  0.00000000E+00  0.00000000E+00  0.00000000E+00
  0.00000000E+00  0.00000000E+00  0.00000000E+00
  0.00000000E+00  0.00000000E+00  0.00000000E+00
  0.00000000E+00  0.00000000E+00  0.00000000E+00
  0.00000000E+00  0.00000000E+00  0.00000000E+00
  0.00000000E+00  0.00000000E+00  0.00000000E+00
  0.00000000E+00  0.00000000E+00  0.00000000E+00
  0.00000000E+00  0.00000000E+00  0.00000000E+00
  0.00000000E+00  0.00000000E+00  0.00000000E+00
  0.00000000E+00  0.00000000E+00  0.00000000E+00
  0.00000000E+00  0.00000000E+00  0.00000000E+00
  0.00000000E+00  0.00000000E+00  0.00000000E+00
  0.00000000E+00  0.00000000E+00  0.00000000E+00
  0.00000000E+00  0.00000000E+00  0.00000000E+00
  0.00000000E+00  0.00000000E+00  0.00000000E+00
  0.00000000E+00  0.00000000E+00  0.00000000E+00
  0.00000000E+00  0.00000000E+00  0.00000000E+00
  0.00000000E+00  0.00000000E+00  0.00000000E+00
  0.00000000E+00  0.00000000E+00  0.00000000E+00
  0.00000000E+00  0.00000000E+00  0.00000000E+00
  0.00000000E+00  0.00000000E+00  0.00000000E+00
  0.00000000E+00  0.00000000E+00  0.00000000E+00
  0.00000000E+00  0.00000000E+00  0.00000000E+00
  0.00000000E+00  0.00000000E+00  0.00000000E+00
  0.00000000E+00  0.00000000E+00  0.00000000E+00
  0.00000000E+00  0.00000000E+00  0.00000000E+00
  0.00000000E+00  0.00000000E+00  0.00000000E+00
  0.00000000E+00  0.00000000E+00  0.00000000E+00
  0.00000000E+00  0.00000000E+00  0.00000000E+00
  0.00000000E+00  0.00000000E+00  0.00000000E+00
  0.00000000E+00  0.00000000E+00  0.00000000E+00
  0.00000000E+00  0.00000000E+00  0.00000000E+00
  0.00000000E+00  0.00000000E+00  0.00000000E+00
  0.00000000E+00  0.00000000E+00  0.00000000E+00
  0.00000000E+00  0.00000000E+00  0.00000000E+00
  0.00000000E+00  0.00000000E+00  0.00000000E+00
  0.00000000E+00  0.00000000E+00  0.00000000E+00
  0.00000000E+00  0.00000000E+00  0.00000000E+00
  0.00000000E+00  0.00000000E+00  0.00000000E+00
  0.00000000E+00  0.00000000E+00  0.00000000E+00
  0.00000000E+00  0.00000000E+00  0.00000000E+00
  0.00000000E+00  0.00000000E+00  0.00000000E+00
  0.00000000E+00  0.00000000E+00  0.00000000E+00
