Zn_H                                    
   1.00000000000000     
     8.2920505626086864   -0.0007127703903212   -0.0009952784144410
     0.0020468000227238   32.7262012756888936   -3.3752332965525009
     0.0006757189042478   -0.6852481993166208    6.7126003540638086
   C    Zn   H    N    O 
    80     4    32    24    16
Direct
  0.8972952258502005  0.9572425547060135  0.1582956685183419
  0.7483935638890173  0.9519977498186876  0.4266069443797633
  0.8978928448585393  0.7986128714595395  0.8882541973839935
  0.6026835546615814  0.4571173121101211  0.6564782786747543
  0.7506342731641027  0.3036752126557261  0.1183085532784176
  0.2472638381996504  0.8038568932851007  0.1199517295413912
  0.7513836309163437  0.4518729980174712  0.9249494717035844
  0.6013202783337235  0.2984934846393017  0.3863853616774335
  0.2532928609977887  0.4520695546799089  0.4251897353506777
  0.0986705155316940  0.7986373378685201  0.3885558461639462
  0.2465393164521714  0.9521487448469443  0.9265631388910620
  0.2522911229363061  0.3037978144190205  0.6186411954153641
  0.7492302557056831  0.8037097011027257  0.6195406869917974
  0.0979221867052260  0.9572378670003374  0.6577896365098397
  0.4012210270116725  0.2985603941686321  0.8869411711810002
  0.4019284720651584  0.4571998382619213  0.1564977337429170
  0.6840302062939330  0.0318777448871828  0.1355792164737721
  0.8256615322073415  0.0510332355822669  0.4690261428367890
  0.8272460141735678  0.7047638256226989  0.5769185988839567
  0.6742142806098315  0.5508575483871923  0.9679393416734925
  0.6724023342982406  0.2046537152195711  0.0759290411191884
  0.3122131964054589  0.7240598657320874  0.4116167202417387
  0.8156670314182790  0.5318609768082467  0.6343511924227201
  0.8136899931606791  0.2238091652722787  0.4096199665046925
  0.1889257121175731  0.5318927633216504  0.1338831100689291
  0.1717622135642713  0.7048316008619935  0.0774162795041420
  0.1700234922762718  0.0511693542437968  0.9683396053596312
  0.3279725968044431  0.2047281885835872  0.5764917890112145
  0.6862678063479350  0.7237722142341028  0.9108638079082922
  0.3109494403055209  0.0318669611217288  0.6345076713508533
  0.1875259114524610  0.2240609035660057  0.9106514435760715
  0.3297813952313149  0.5510874965473960  0.4678012701273602
  0.6864660743617890  0.0762104992971402  0.1209323106624183
  0.8154217679754083  0.0952811178783008  0.4546588021758353
  0.8173041425671741  0.6604938409441843  0.5909104560481637
  0.6843813081081649  0.5951363708348154  0.9541015309732046
  0.6823872733650163  0.1604082477510786  0.0904592800579849
  0.3113758484893765  0.6796697210850127  0.4254055794414100
  0.8132409174903046  0.5762264984432761  0.6202830622040167
  0.8111950893494608  0.1794848598169025  0.4242992770551979
  0.1900496214830625  0.5762796430300270  0.1200907432639227
  0.1832552965993699  0.6605641534222215  0.0911807926208397
  0.1814675865533246  0.0954251490402100  0.9543469552689956
  0.3165315685507437  0.1604801102060662  0.5906625504686573
  0.6886593073192131  0.6794075364482879  0.9248804375285786
  0.3097789361750287  0.0762301784486255  0.6202899482443058
  0.1884208704413979  0.1796913273306444  0.9248342026582819
  0.3183368614302680  0.5953639007472020  0.4542003174056859
  0.6251801131500230  0.0879178907570548  0.9497427366145317
  0.8758892391693038  0.1257834507043114  0.6099154370690840
  0.8776775721933703  0.6300477066899290  0.4352960157476886
  0.6239231791915998  0.6255723582158836  0.1096759812907351
  0.6219588074507243  0.1298989017944763  0.9351805848952992
  0.3731362755389256  0.6679266393721193  0.5962738243963770
  0.8744771149906754  0.5880345573163908  0.4493181631723218
  0.8725733367906443  0.1677646952544123  0.5954107497834613
  0.1284192010426111  0.5880040979487617  0.9491139844120653
  0.1238124331643675  0.6300194073490815  0.9353396887246319
  0.1219287717572968  0.1260075724114103  0.1099060310759441
  0.3759281174854436  0.1298908180632594  0.4350096635586667
  0.6272760611632933  0.6675849327238765  0.0957392473492220
  0.3713323272196689  0.0878911826984705  0.4491212382832828
  0.1266302441372460  0.1680112989011704  0.0958485096795627
  0.3778368047470906  0.6259019133515764  0.6099856869744400
  0.7909242397125524  0.9792090156080562  0.3009604470147664
  0.7919613891925010  0.7765468307985728  0.7453405934961239
  0.7089747103924751  0.4790824977107206  0.7992363403945859
  0.7076124569745446  0.2764795315641351  0.2438147192147255
  0.2050731387345053  0.7766747180817148  0.2459197592437974
  0.2958806151307982  0.4792400095383655  0.2993529002229351
  0.2040259328693210  0.9792898820652098  0.8005399883703319
  0.2946539563387560  0.2766068756662179  0.7444982608942894
  0.7496246727768749  0.1065989452365770  0.2804489650776176
  0.7517305731961486  0.6490791415494996  0.7649994761401899
  0.7501337268993709  0.6065507094836278  0.7801091381407730
  0.7480291166954061  0.1490932956859368  0.2647607082968193
  0.2492943034946933  0.6492360917114297  0.2652547643248155
  0.2521970995646825  0.6066998996316784  0.2802035115275174
  0.2476222207800518  0.1066973801507061  0.7802100487637915
  0.2505251204206829  0.1492151821492200  0.7649009418268093
  0.0682040125865626  0.8779669497645841  0.0231877390812869
  0.9275413721257380  0.8778858010471851  0.5229475922635274
  0.4314603706029416  0.3778789505732192  0.5216009696133668
  0.5721986516696731  0.3778387321787875  0.0215323876612032
  0.4256132137072228  0.1392207910774204  0.3019657261404092
  0.9185334560073102  0.5638570708923467  0.3267260640710319
  0.9167394435500640  0.1919916122968743  0.7177078854328798
  0.5810837638114563  0.0636855891468073  0.8274212257418441
  0.5831529095712753  0.6917561046216534  0.2183155782857682
  0.5743947071243980  0.6161157475410022  0.2424686323261369
  0.0740788083539528  0.6394004560662481  0.8024542695397656
  0.0720376743452320  0.1166748187025703  0.2428326175978057
  0.9269953419228045  0.6394977418562462  0.3023569002021773
  0.0833049939918595  0.1922874364191500  0.2184794566496606
  0.0851469936372169  0.5637534106536037  0.8263305290803657
  0.4164095655244253  0.6921690691820430  0.7191046859060179
  0.4277000588749473  0.6165250036726277  0.7428195913179039
  0.5725832825430501  0.1392764078096320  0.8021016956168907
  0.9254198050121403  0.1164052261400172  0.7429113368281364
  0.4145564419711647  0.0636091070703344  0.3264633448391692
  0.8292163420735079  0.4566515895632506  0.0570752107619015
  0.1742816911480034  0.2990274937583237  0.4866950318860148
  0.4621764565504094  0.4676527615393908  0.0335121620255379
  0.0385091481292150  0.7881438050490388  0.5114881807247400
  0.3243260147480669  0.9569819174414320  0.0587234012068905
  0.4615218294652124  0.2880562173817651  0.0097551513844607
  0.9576798535346995  0.9677746643387408  0.0356024125693040
  0.6714772561994451  0.7988668634830418  0.4873487502054275
  0.0377078449362500  0.9676765592453407  0.5347342859949862
  0.5423854256911156  0.4676366982442914  0.5337000034981685
  0.8287683630301288  0.2988710277487101  0.9864806975188003
  0.6704220361080999  0.9567724703674685  0.5585928384574501
  0.5407054313325546  0.2879859789986838  0.5089673855153052
  0.1755424434557185  0.4568908447625901  0.5573848535225920
  0.3250922363413977  0.7990773431347620  0.9878327106343860
  0.9582319002578430  0.7881522602675233  0.0111633936055924
  0.9198483573803529  0.9193397158134857  0.1969535463236838
  0.8275503007381815  0.9156620970117189  0.3616632196712004
  0.9200790150156806  0.8365241172449842  0.8495366742055168
  0.5800486780641307  0.4192186894978605  0.6951701156173016
  0.6717774378104835  0.3400545330326921  0.1832119761490887
  0.1679109318939283  0.8401653561053664  0.1846772870083555
  0.6722220766425906  0.4155427222701320  0.8599775132519056
  0.5792339614391793  0.3364138982989644  0.3477720873612427
  0.3321207396662089  0.4156939307199607  0.3601987074049262
  0.0758032796763857  0.8365012543894963  0.3495411561607042
  0.1675976389632510  0.9157779228982079  0.8617579356155787
  0.3317246408601875  0.3401012771596186  0.6832504888860385
  0.8279132216230565  0.8401101684570378  0.6845837073862100
  0.0754571862969584  0.9193584412662403  0.6967763742424964
  0.4240360839954960  0.3364279224447557  0.8479473135468396
  0.4242655945402802  0.4192968872652258  0.1952666672836330
  0.7558775763553953  0.0219242092138643  0.3098579642637560
  0.7574578448681066  0.7338016072306743  0.7363701394671622
  0.7439207604098712  0.5218130657934026  0.8084532371454856
  0.7422886472837504  0.2337487335548474  0.2350527669894831
  0.2406145570321812  0.7339861038817048  0.2371177910269040
  0.2606804299871754  0.5219475191675684  0.3082251326730443
  0.2392692675431007  0.0219854136393067  0.8090524542881283
  0.2590783934869521  0.2339261632646625  0.7359744187469417
  0.6236118640534372  0.0049445725286290  0.0036946701857872
  0.8926708645198573  0.0399850064988243  0.6121766763147818
  0.8939620657273153  0.7158790800757018  0.4337486340857666
  0.6073341336896121  0.5397332389784495  0.1109650941361764
  0.6056012784009042  0.2156923076295740  0.9326404110606319
  0.3712255119510601  0.7510578373940788  0.5444100317138734
  0.8760255697968375  0.5049849551602890  0.5021380898772136
  0.8738991241253018  0.2507504956083082  0.5416851407589647
  0.1295122610649670  0.5049202541581010  0.0013109427475513
  0.1045803410190373  0.7158324042927191  0.9342426889265099
  0.1025926842095117  0.0401864004505583  0.1113555351413638
  0.3951029293677735  0.2156724048013103  0.4331623969120173
  0.6262662952004661  0.7506560448651740  0.0433663307705743
  0.3703703438040051  0.0048577420881912  0.5021270162683393
  0.1284749736128461  0.2510942387288679  0.0432221123476850
  0.3971195731661794  0.5400517359547479  0.6107506178035820
 
  0.00000000E+00  0.00000000E+00  0.00000000E+00
  0.00000000E+00  0.00000000E+00  0.00000000E+00
  0.00000000E+00  0.00000000E+00  0.00000000E+00
  0.00000000E+00  0.00000000E+00  0.00000000E+00
  0.00000000E+00  0.00000000E+00  0.00000000E+00
  0.00000000E+00  0.00000000E+00  0.00000000E+00
  0.00000000E+00  0.00000000E+00  0.00000000E+00
  0.00000000E+00  0.00000000E+00  0.00000000E+00
  0.00000000E+00  0.00000000E+00  0.00000000E+00
  0.00000000E+00  0.00000000E+00  0.00000000E+00
  0.00000000E+00  0.00000000E+00  0.00000000E+00
  0.00000000E+00  0.00000000E+00  0.00000000E+00
  0.00000000E+00  0.00000000E+00  0.00000000E+00
  0.00000000E+00  0.00000000E+00  0.00000000E+00
  0.00000000E+00  0.00000000E+00  0.00000000E+00
  0.00000000E+00  0.00000000E+00  0.00000000E+00
  0.00000000E+00  0.00000000E+00  0.00000000E+00
  0.00000000E+00  0.00000000E+00  0.00000000E+00
  0.00000000E+00  0.00000000E+00  0.00000000E+00
  0.00000000E+00  0.00000000E+00  0.00000000E+00
  0.00000000E+00  0.00000000E+00  0.00000000E+00
  0.00000000E+00  0.00000000E+00  0.00000000E+00
  0.00000000E+00  0.00000000E+00  0.00000000E+00
  0.00000000E+00  0.00000000E+00  0.00000000E+00
  0.00000000E+00  0.00000000E+00  0.00000000E+00
  0.00000000E+00  0.00000000E+00  0.00000000E+00
  0.00000000E+00  0.00000000E+00  0.00000000E+00
  0.00000000E+00  0.00000000E+00  0.00000000E+00
  0.00000000E+00  0.00000000E+00  0.00000000E+00
  0.00000000E+00  0.00000000E+00  0.00000000E+00
  0.00000000E+00  0.00000000E+00  0.00000000E+00
  0.00000000E+00  0.00000000E+00  0.00000000E+00
  0.00000000E+00  0.00000000E+00  0.00000000E+00
  0.00000000E+00  0.00000000E+00  0.00000000E+00
  0.00000000E+00  0.00000000E+00  0.00000000E+00
  0.00000000E+00  0.00000000E+00  0.00000000E+00
  0.00000000E+00  0.00000000E+00  0.00000000E+00
  0.00000000E+00  0.00000000E+00  0.00000000E+00
  0.00000000E+00  0.00000000E+00  0.00000000E+00
  0.00000000E+00  0.00000000E+00  0.00000000E+00
  0.00000000E+00  0.00000000E+00  0.00000000E+00
  0.00000000E+00  0.00000000E+00  0.00000000E+00
  0.00000000E+00  0.00000000E+00  0.00000000E+00
  0.00000000E+00  0.00000000E+00  0.00000000E+00
  0.00000000E+00  0.00000000E+00  0.00000000E+00
  0.00000000E+00  0.00000000E+00  0.00000000E+00
  0.00000000E+00  0.00000000E+00  0.00000000E+00
  0.00000000E+00  0.00000000E+00  0.00000000E+00
  0.00000000E+00  0.00000000E+00  0.00000000E+00
  0.00000000E+00  0.00000000E+00  0.00000000E+00
  0.00000000E+00  0.00000000E+00  0.00000000E+00
  0.00000000E+00  0.00000000E+00  0.00000000E+00
  0.00000000E+00  0.00000000E+00  0.00000000E+00
  0.00000000E+00  0.00000000E+00  0.00000000E+00
  0.00000000E+00  0.00000000E+00  0.00000000E+00
  0.00000000E+00  0.00000000E+00  0.00000000E+00
  0.00000000E+00  0.00000000E+00  0.00000000E+00
  0.00000000E+00  0.00000000E+00  0.00000000E+00
  0.00000000E+00  0.00000000E+00  0.00000000E+00
  0.00000000E+00  0.00000000E+00  0.00000000E+00
  0.00000000E+00  0.00000000E+00  0.00000000E+00
  0.00000000E+00  0.00000000E+00  0.00000000E+00
  0.00000000E+00  0.00000000E+00  0.00000000E+00
  0.00000000E+00  0.00000000E+00  0.00000000E+00
  0.00000000E+00  0.00000000E+00  0.00000000E+00
  0.00000000E+00  0.00000000E+00  0.00000000E+00
  0.00000000E+00  0.00000000E+00  0.00000000E+00
  0.00000000E+00  0.00000000E+00  0.00000000E+00
  0.00000000E+00  0.00000000E+00  0.00000000E+00
  0.00000000E+00  0.00000000E+00  0.00000000E+00
  0.00000000E+00  0.00000000E+00  0.00000000E+00
  0.00000000E+00  0.00000000E+00  0.00000000E+00
  0.00000000E+00  0.00000000E+00  0.00000000E+00
  0.00000000E+00  0.00000000E+00  0.00000000E+00
  0.00000000E+00  0.00000000E+00  0.00000000E+00
  0.00000000E+00  0.00000000E+00  0.00000000E+00
  0.00000000E+00  0.00000000E+00  0.00000000E+00
  0.00000000E+00  0.00000000E+00  0.00000000E+00
  0.00000000E+00  0.00000000E+00  0.00000000E+00
  0.00000000E+00  0.00000000E+00  0.00000000E+00
  0.00000000E+00  0.00000000E+00  0.00000000E+00
  0.00000000E+00  0.00000000E+00  0.00000000E+00
  0.00000000E+00  0.00000000E+00  0.00000000E+00
  0.00000000E+00  0.00000000E+00  0.00000000E+00
  0.00000000E+00  0.00000000E+00  0.00000000E+00
  0.00000000E+00  0.00000000E+00  0.00000000E+00
  0.00000000E+00  0.00000000E+00  0.00000000E+00
  0.00000000E+00  0.00000000E+00  0.00000000E+00
  0.00000000E+00  0.00000000E+00  0.00000000E+00
  0.00000000E+00  0.00000000E+00  0.00000000E+00
  0.00000000E+00  0.00000000E+00  0.00000000E+00
  0.00000000E+00  0.00000000E+00  0.00000000E+00
  0.00000000E+00  0.00000000E+00  0.00000000E+00
  0.00000000E+00  0.00000000E+00  0.00000000E+00
  0.00000000E+00  0.00000000E+00  0.00000000E+00
  0.00000000E+00  0.00000000E+00  0.00000000E+00
  0.00000000E+00  0.00000000E+00  0.00000000E+00
  0.00000000E+00  0.00000000E+00  0.00000000E+00
  0.00000000E+00  0.00000000E+00  0.00000000E+00
  0.00000000E+00  0.00000000E+00  0.00000000E+00
  0.00000000E+00  0.00000000E+00  0.00000000E+00
  0.00000000E+00  0.00000000E+00  0.00000000E+00
  0.00000000E+00  0.00000000E+00  0.00000000E+00
  0.00000000E+00  0.00000000E+00  0.00000000E+00
  0.00000000E+00  0.00000000E+00  0.00000000E+00
  0.00000000E+00  0.00000000E+00  0.00000000E+00
  0.00000000E+00  0.00000000E+00  0.00000000E+00
  0.00000000E+00  0.00000000E+00  0.00000000E+00
  0.00000000E+00  0.00000000E+00  0.00000000E+00
  0.00000000E+00  0.00000000E+00  0.00000000E+00
  0.00000000E+00  0.00000000E+00  0.00000000E+00
  0.00000000E+00  0.00000000E+00  0.00000000E+00
  0.00000000E+00  0.00000000E+00  0.00000000E+00
  0.00000000E+00  0.00000000E+00  0.00000000E+00
  0.00000000E+00  0.00000000E+00  0.00000000E+00
  0.00000000E+00  0.00000000E+00  0.00000000E+00
  0.00000000E+00  0.00000000E+00  0.00000000E+00
  0.00000000E+00  0.00000000E+00  0.00000000E+00
  0.00000000E+00  0.00000000E+00  0.00000000E+00
  0.00000000E+00  0.00000000E+00  0.00000000E+00
  0.00000000E+00  0.00000000E+00  0.00000000E+00
  0.00000000E+00  0.00000000E+00  0.00000000E+00
  0.00000000E+00  0.00000000E+00  0.00000000E+00
  0.00000000E+00  0.00000000E+00  0.00000000E+00
  0.00000000E+00  0.00000000E+00  0.00000000E+00
  0.00000000E+00  0.00000000E+00  0.00000000E+00
  0.00000000E+00  0.00000000E+00  0.00000000E+00
  0.00000000E+00  0.00000000E+00  0.00000000E+00
  0.00000000E+00  0.00000000E+00  0.00000000E+00
  0.00000000E+00  0.00000000E+00  0.00000000E+00
  0.00000000E+00  0.00000000E+00  0.00000000E+00
  0.00000000E+00  0.00000000E+00  0.00000000E+00
  0.00000000E+00  0.00000000E+00  0.00000000E+00
  0.00000000E+00  0.00000000E+00  0.00000000E+00
  0.00000000E+00  0.00000000E+00  0.00000000E+00
  0.00000000E+00  0.00000000E+00  0.00000000E+00
  0.00000000E+00  0.00000000E+00  0.00000000E+00
  0.00000000E+00  0.00000000E+00  0.00000000E+00
  0.00000000E+00  0.00000000E+00  0.00000000E+00
  0.00000000E+00  0.00000000E+00  0.00000000E+00
  0.00000000E+00  0.00000000E+00  0.00000000E+00
  0.00000000E+00  0.00000000E+00  0.00000000E+00
  0.00000000E+00  0.00000000E+00  0.00000000E+00
  0.00000000E+00  0.00000000E+00  0.00000000E+00
  0.00000000E+00  0.00000000E+00  0.00000000E+00
  0.00000000E+00  0.00000000E+00  0.00000000E+00
  0.00000000E+00  0.00000000E+00  0.00000000E+00
  0.00000000E+00  0.00000000E+00  0.00000000E+00
  0.00000000E+00  0.00000000E+00  0.00000000E+00
  0.00000000E+00  0.00000000E+00  0.00000000E+00
  0.00000000E+00  0.00000000E+00  0.00000000E+00
  0.00000000E+00  0.00000000E+00  0.00000000E+00
  0.00000000E+00  0.00000000E+00  0.00000000E+00
  0.00000000E+00  0.00000000E+00  0.00000000E+00
  0.00000000E+00  0.00000000E+00  0.00000000E+00
  0.00000000E+00  0.00000000E+00  0.00000000E+00
