Zn_H                                    
   1.00000000000000     
    22.2662690501934293   -0.0005025391073451    0.0042203474577004
     0.0018287972057533   26.3635897276303623   -5.8866026071697561
     0.0023230809120186   -1.1124672620670006    6.2331788023766324
   C    Zn   H    N    O 
    80     4    32    24    16
Direct
  0.9396220790666732  0.9701069502402504  0.1677348843303506
  0.8835549058355170  0.9527805864033780  0.4230858426927924
  0.9393577457743731  0.7854907225221055  0.8752082476671390
  0.5602270171706252  0.4703166282159970  0.6696101667414425
  0.6164806034483519  0.3029845071091870  0.1215146614258629
  0.1165125422436120  0.8028453018034867  0.1206890315003406
  0.6163566567225942  0.4529454140468090  0.9244719124336669
  0.5603531796853076  0.2854873031221246  0.3762668718913531
  0.3833979072332809  0.4528049533598235  0.4247562687796318
  0.0601378955238943  0.7852868827028914  0.3746391308940673
  0.1164755478813007  0.9526400621201176  0.9229427936120018
  0.3834168636475681  0.3030849022304309  0.6224433609906654
  0.8832504095114260  0.8030904489661950  0.6209004913556058
  0.0605098970461526  0.9700246041487048  0.6676928270938660
  0.4395684125318553  0.2855533619928536  0.8768350335141406
  0.4394568375717895  0.4702776082687663  0.1697864475997903
  0.8132988269682642  0.0147906581588657  0.0877783119539615
  0.8415364534283327  0.0726081183693381  0.4925023312222265
  0.8410549740603201  0.6832732325666413  0.5516838471513594
  0.6582303586364802  0.5728399536196989  0.9937712318314382
  0.6586196901755201  0.1831166159858384  0.0515662844857943
  0.1865471060471080  0.7408990720283057  0.4566087520803421
  0.6865328188228688  0.5149702010234023  0.5890403216338171
  0.6867965327713748  0.2409286784426286  0.4563095160566277
  0.3130643314150419  0.5147629845507709  0.0895343686542631
  0.1584416059675391  0.6829592817446084  0.0518946863997485
  0.1584564126494286  0.0725428617370412  0.9930333133924591
  0.3413242799948506  0.1832687387012655  0.5523718040691463
  0.8128777303616133  0.7411372255374076  0.9565553147509362
  0.1867404240885975  0.0148320565507518  0.5880603097519383
  0.3131015880087062  0.2409885872122075  0.9573703811331811
  0.3412184896497834  0.5726665232145010  0.4943281598489477
  0.7730149825019978  0.0580733373365945  0.0837208787830832
  0.8022256351761214  0.1154783202066056  0.4781126308467591
  0.8016770117557570  0.6404593243561081  0.5661070081921622
  0.6974964815316085  0.6157123867853684  0.9791450433781321
  0.6979866593462347  0.1402695270572281  0.0657181140269074
  0.2268002692191260  0.6976324174826516  0.4610638915817944
  0.7267460734367788  0.5582671053651822  0.5846930426635950
  0.7271633425271276  0.1976807094452440  0.4601529703779832
  0.2727380298005500  0.5579960529685124  0.0852968759254935
  0.1977460222926055  0.6401359788931700  0.0665789838634439
  0.1977457139960634  0.1154448542317468  0.9787921074409311
  0.3019572320812074  0.1404076524849245  0.5664095564988898
  0.7725093145384818  0.6979044460022408  0.9606432754688967
  0.2269956573404173  0.0581450789004947  0.5841482124059780
  0.2727628861630080  0.1977108306113280  0.9611084976359052
  0.3018017200771723  0.6154639003923492  0.4797994195160769
  0.7396392388107955  0.0506364261518257  0.8884082442302770
  0.7979577092690491  0.1641431440785510  0.6644236560561296
  0.7973964479103728  0.5918041428239320  0.3797622908504579
  0.7017461783019954  0.6643902332840028  0.1653856324215894
  0.7022950666066592  0.0916242739207647  0.8792833464566598
  0.2601182132873063  0.7051066973639237  0.6565310984045283
  0.7601084611482847  0.5508147689202119  0.3891945582530312
  0.7605906823756214  0.2051257791738337  0.6553406395229331
  0.2394605704202206  0.5505248328622514  0.8897365921433362
  0.2021252513206235  0.5914803746868031  0.8802645610868183
  0.2019948693424709  0.1640674272518652  0.1653297330291537
  0.2976569886419256  0.0918123639873727  0.3797340470310715
  0.7390985630798710  0.7053596775244699  0.1560376978346909
  0.2603550743210405  0.0507887133472948  0.3887450112687603
  0.2393328768372740  0.2050852583191514  0.1563588890180085
  0.2974394947846903  0.6641412401521336  0.6660115777747819
  0.8867535870090677  0.9849835124238808  0.2957515734756271
  0.8863827659654149  0.7708346076121799  0.7480249701057247
  0.6130958882078943  0.4851872453404127  0.7973290100956234
  0.6132595332175654  0.2706857036475938  0.2484361887214845
  0.1131884046566327  0.7705811706937524  0.2477405531945536
  0.3865606243730966  0.4850658750967440  0.2976606360183851
  0.1133150101815446  0.9849037606577653  0.7958674221571087
  0.3866339392333131  0.2708030716987864  0.7494253686049177
  0.7690924007667661  0.1070781839489499  0.2764280511108836
  0.7685666831344378  0.6488938175248151  0.7679674000728411
  0.7306190186493140  0.6072949780253794  0.7772909733962621
  0.7311040143555729  0.1486813194450249  0.2673943499753335
  0.2307740064087369  0.6485949806068732  0.2685087709370322
  0.2687391674210247  0.6070146213308973  0.2779103747011860
  0.2308812793688162  0.1071138617194833  0.7770396696538029
  0.2688422159833763  0.1487506204889470  0.7681691112695930
  0.0285663148535917  0.8776540857846555  0.0210183429334094
  0.9713648977571054  0.8777255621521505  0.5212167052587091
  0.4714140129893494  0.3778977388461229  0.5232233190974966
  0.5284950702786304  0.3779217155604471  0.0232228376707937
  0.3237571202147507  0.0865971103368679  0.2269107518552786
  0.7563277608874941  0.5126274312905394  0.2435573103622701
  0.7567877416949571  0.2433018033749192  0.8010561264612548
  0.7434680586694569  0.0124701559689910  0.7426505100160554
  0.7428796850738237  0.7435373349930998  0.3017373138844732
  0.6756264035006367  0.6696910670310317  0.3182488308727258
  0.1760777053791429  0.5861778386063179  0.7273560957576350
  0.1758685682020200  0.1693181214721022  0.3181307898953065
  0.8234942829045693  0.5865212305379899  0.2268828822035260
  0.2431072615501577  0.2432345276164369  0.3022000440152439
  0.2433674233642833  0.5123598910201181  0.7440437865663654
  0.2562695110457369  0.7432947762806563  0.8021363525935570
  0.3235277402922918  0.6694862669432524  0.8188718937416795
  0.6761663680854113  0.0863420274999669  0.7265812892140815
  0.8241077393513336  0.1694485126617380  0.8171076769001502
  0.2565630620735035  0.0126414368566543  0.2428798770742588
  0.6488611740109320  0.4523842298441849  0.0514279796553865
  0.3508872004123660  0.3037116161202675  0.4956758744812007
  0.4584076105137171  0.4847516437701813  0.0463293745129505
  0.0410067831352379  0.7707581080618198  0.4976329073687467
  0.1489014094676833  0.9520646144455682  0.0501520347961986
  0.4585953266194451  0.2710329851773849  0.9999784384418575
  0.9585984532370588  0.9845303816510977  0.0441498909148095
  0.8507274555220192  0.8037750145563649  0.4942082397201517
  0.0415840520175337  0.9844829696698127  0.5442056187552424
  0.5412081877165562  0.4847413778420915  0.5461646071660553
  0.6489853857300290  0.3036003062175539  0.9945024539552065
  0.8510766067449538  0.9522420357761447  0.5502977392375286
  0.5413364004266157  0.2709723314244386  0.4995033267374325
  0.3509082325418760  0.4521704516217824  0.5517882416828499
  0.1491435177393114  0.8034967341331338  0.9941525920918011
  0.9583325411223740  0.7709594384165470  0.9983928952252228
  0.9666177763400015  0.9312107257978184  0.2159804315243150
  0.9318902388777417  0.9202849182511983  0.3710114108569513
  0.9664717268484466  0.8243101742547765  0.8267312929866932
  0.5333062320542794  0.4313758140091650  0.7177989356090748
  0.5681316049530807  0.3354676256929423  0.1736686592440506
  0.0680703755568146  0.8352136648970827  0.1718673347426432
  0.5680624148752287  0.4204174764081543  0.8725497003841269
  0.5333725080579299  0.3244368939575821  0.3283559215353904
  0.4317741025774353  0.4203526890310414  0.3726627648198431
  0.0331673150881784  0.8241500037975058  0.3261124426548250
  0.0681829310185265  0.9201043797983459  0.8705178466055088
  0.4317987932401479  0.3355045422972935  0.6741099712126442
  0.9317241388288693  0.8354015427698585  0.6722954351357018
  0.0335191735268623  0.9310679665269319  0.7155507648328410
  0.4665729081536227  0.3244537929347047  0.8285885361377225
  0.4664931263872276  0.4313737840876541  0.2178578992960638
  0.8455627991955126  0.0250362392317669  0.2929269146278983
  0.8450968149477447  0.7308649946884813  0.7511612866577835
  0.6542437345375802  0.5252506444599305  0.7942943585068605
  0.6545082417198529  0.2306604354081188  0.2512111593381903
  0.1543825250511262  0.7305827154753644  0.2511864352661561
  0.3452917952026056  0.5250677926095690  0.2948142126857860
  0.1544786091952233  0.0250041924367039  0.7932900903834010
  0.3454059239588858  0.2307695531090985  0.7522175618573002
  0.8189461064719836  0.9719647868824524  0.9230142935024901
  0.8694441098794172  0.0774336870607542  0.6667190565610071
  0.8690502331551500  0.6783674467416247  0.3774597892412288
  0.6303360938018372  0.5776885068161732  0.1681586242844659
  0.6306911983974288  0.1782663215405336  0.8773839287770855
  0.1808364668643989  0.7837599517132361  0.6211266372046822
  0.6809640712504503  0.4721026292202168  0.4244654778975985
  0.6810862299187548  0.2837332392489387  0.6211344352108839
  0.3187933034315193  0.4719372200125846  0.9248120728316422
  0.1305416098103294  0.6780342395027716  0.8775607634276668
  0.1305401020091210  0.0772996313301988  0.1672639459253205
  0.3692617950807389  0.1784838375305426  0.3781735668409141
  0.8186582372630085  0.7839155919944290  0.1214303736199369
  0.1811196199345488  0.9720439135002934  0.4231080007194734
  0.3187787041372019  0.2837691005592831  0.1223191476971763
  0.3691549039480222  0.5775562923379098  0.6685628138173954
 
  0.00000000E+00  0.00000000E+00  0.00000000E+00
  0.00000000E+00  0.00000000E+00  0.00000000E+00
  0.00000000E+00  0.00000000E+00  0.00000000E+00
  0.00000000E+00  0.00000000E+00  0.00000000E+00
  0.00000000E+00  0.00000000E+00  0.00000000E+00
  0.00000000E+00  0.00000000E+00  0.00000000E+00
  0.00000000E+00  0.00000000E+00  0.00000000E+00
  0.00000000E+00  0.00000000E+00  0.00000000E+00
  0.00000000E+00  0.00000000E+00  0.00000000E+00
  0.00000000E+00  0.00000000E+00  0.00000000E+00
  0.00000000E+00  0.00000000E+00  0.00000000E+00
  0.00000000E+00  0.00000000E+00  0.00000000E+00
  0.00000000E+00  0.00000000E+00  0.00000000E+00
  0.00000000E+00  0.00000000E+00  0.00000000E+00
  0.00000000E+00  0.00000000E+00  0.00000000E+00
  0.00000000E+00  0.00000000E+00  0.00000000E+00
  0.00000000E+00  0.00000000E+00  0.00000000E+00
  0.00000000E+00  0.00000000E+00  0.00000000E+00
  0.00000000E+00  0.00000000E+00  0.00000000E+00
  0.00000000E+00  0.00000000E+00  0.00000000E+00
  0.00000000E+00  0.00000000E+00  0.00000000E+00
  0.00000000E+00  0.00000000E+00  0.00000000E+00
  0.00000000E+00  0.00000000E+00  0.00000000E+00
  0.00000000E+00  0.00000000E+00  0.00000000E+00
  0.00000000E+00  0.00000000E+00  0.00000000E+00
  0.00000000E+00  0.00000000E+00  0.00000000E+00
  0.00000000E+00  0.00000000E+00  0.00000000E+00
  0.00000000E+00  0.00000000E+00  0.00000000E+00
  0.00000000E+00  0.00000000E+00  0.00000000E+00
  0.00000000E+00  0.00000000E+00  0.00000000E+00
  0.00000000E+00  0.00000000E+00  0.00000000E+00
  0.00000000E+00  0.00000000E+00  0.00000000E+00
  0.00000000E+00  0.00000000E+00  0.00000000E+00
  0.00000000E+00  0.00000000E+00  0.00000000E+00
  0.00000000E+00  0.00000000E+00  0.00000000E+00
  0.00000000E+00  0.00000000E+00  0.00000000E+00
  0.00000000E+00  0.00000000E+00  0.00000000E+00
  0.00000000E+00  0.00000000E+00  0.00000000E+00
  0.00000000E+00  0.00000000E+00  0.00000000E+00
  0.00000000E+00  0.00000000E+00  0.00000000E+00
  0.00000000E+00  0.00000000E+00  0.00000000E+00
  0.00000000E+00  0.00000000E+00  0.00000000E+00
  0.00000000E+00  0.00000000E+00  0.00000000E+00
  0.00000000E+00  0.00000000E+00  0.00000000E+00
  0.00000000E+00  0.00000000E+00  0.00000000E+00
  0.00000000E+00  0.00000000E+00  0.00000000E+00
  0.00000000E+00  0.00000000E+00  0.00000000E+00
  0.00000000E+00  0.00000000E+00  0.00000000E+00
  0.00000000E+00  0.00000000E+00  0.00000000E+00
  0.00000000E+00  0.00000000E+00  0.00000000E+00
  0.00000000E+00  0.00000000E+00  0.00000000E+00
  0.00000000E+00  0.00000000E+00  0.00000000E+00
  0.00000000E+00  0.00000000E+00  0.00000000E+00
  0.00000000E+00  0.00000000E+00  0.00000000E+00
  0.00000000E+00  0.00000000E+00  0.00000000E+00
  0.00000000E+00  0.00000000E+00  0.00000000E+00
  0.00000000E+00  0.00000000E+00  0.00000000E+00
  0.00000000E+00  0.00000000E+00  0.00000000E+00
  0.00000000E+00  0.00000000E+00  0.00000000E+00
  0.00000000E+00  0.00000000E+00  0.00000000E+00
  0.00000000E+00  0.00000000E+00  0.00000000E+00
  0.00000000E+00  0.00000000E+00  0.00000000E+00
  0.00000000E+00  0.00000000E+00  0.00000000E+00
  0.00000000E+00  0.00000000E+00  0.00000000E+00
  0.00000000E+00  0.00000000E+00  0.00000000E+00
  0.00000000E+00  0.00000000E+00  0.00000000E+00
  0.00000000E+00  0.00000000E+00  0.00000000E+00
  0.00000000E+00  0.00000000E+00  0.00000000E+00
  0.00000000E+00  0.00000000E+00  0.00000000E+00
  0.00000000E+00  0.00000000E+00  0.00000000E+00
  0.00000000E+00  0.00000000E+00  0.00000000E+00
  0.00000000E+00  0.00000000E+00  0.00000000E+00
  0.00000000E+00  0.00000000E+00  0.00000000E+00
  0.00000000E+00  0.00000000E+00  0.00000000E+00
  0.00000000E+00  0.00000000E+00  0.00000000E+00
  0.00000000E+00  0.00000000E+00  0.00000000E+00
  0.00000000E+00  0.00000000E+00  0.00000000E+00
  0.00000000E+00  0.00000000E+00  0.00000000E+00
  0.00000000E+00  0.00000000E+00  0.00000000E+00
  0.00000000E+00  0.00000000E+00  0.00000000E+00
  0.00000000E+00  0.00000000E+00  0.00000000E+00
  0.00000000E+00  0.00000000E+00  0.00000000E+00
  0.00000000E+00  0.00000000E+00  0.00000000E+00
  0.00000000E+00  0.00000000E+00  0.00000000E+00
  0.00000000E+00  0.00000000E+00  0.00000000E+00
  0.00000000E+00  0.00000000E+00  0.00000000E+00
  0.00000000E+00  0.00000000E+00  0.00000000E+00
  0.00000000E+00  0.00000000E+00  0.00000000E+00
  0.00000000E+00  0.00000000E+00  0.00000000E+00
  0.00000000E+00  0.00000000E+00  0.00000000E+00
  0.00000000E+00  0.00000000E+00  0.00000000E+00
  0.00000000E+00  0.00000000E+00  0.00000000E+00
  0.00000000E+00  0.00000000E+00  0.00000000E+00
  0.00000000E+00  0.00000000E+00  0.00000000E+00
  0.00000000E+00  0.00000000E+00  0.00000000E+00
  0.00000000E+00  0.00000000E+00  0.00000000E+00
  0.00000000E+00  0.00000000E+00  0.00000000E+00
  0.00000000E+00  0.00000000E+00  0.00000000E+00
  0.00000000E+00  0.00000000E+00  0.00000000E+00
  0.00000000E+00  0.00000000E+00  0.00000000E+00
  0.00000000E+00  0.00000000E+00  0.00000000E+00
  0.00000000E+00  0.00000000E+00  0.00000000E+00
  0.00000000E+00  0.00000000E+00  0.00000000E+00
  0.00000000E+00  0.00000000E+00  0.00000000E+00
  0.00000000E+00  0.00000000E+00  0.00000000E+00
  0.00000000E+00  0.00000000E+00  0.00000000E+00
  0.00000000E+00  0.00000000E+00  0.00000000E+00
  0.00000000E+00  0.00000000E+00  0.00000000E+00
  0.00000000E+00  0.00000000E+00  0.00000000E+00
  0.00000000E+00  0.00000000E+00  0.00000000E+00
  0.00000000E+00  0.00000000E+00  0.00000000E+00
  0.00000000E+00  0.00000000E+00  0.00000000E+00
  0.00000000E+00  0.00000000E+00  0.00000000E+00
  0.00000000E+00  0.00000000E+00  0.00000000E+00
  0.00000000E+00  0.00000000E+00  0.00000000E+00
  0.00000000E+00  0.00000000E+00  0.00000000E+00
  0.00000000E+00  0.00000000E+00  0.00000000E+00
  0.00000000E+00  0.00000000E+00  0.00000000E+00
  0.00000000E+00  0.00000000E+00  0.00000000E+00
  0.00000000E+00  0.00000000E+00  0.00000000E+00
  0.00000000E+00  0.00000000E+00  0.00000000E+00
  0.00000000E+00  0.00000000E+00  0.00000000E+00
  0.00000000E+00  0.00000000E+00  0.00000000E+00
  0.00000000E+00  0.00000000E+00  0.00000000E+00
  0.00000000E+00  0.00000000E+00  0.00000000E+00
  0.00000000E+00  0.00000000E+00  0.00000000E+00
  0.00000000E+00  0.00000000E+00  0.00000000E+00
  0.00000000E+00  0.00000000E+00  0.00000000E+00
  0.00000000E+00  0.00000000E+00  0.00000000E+00
  0.00000000E+00  0.00000000E+00  0.00000000E+00
  0.00000000E+00  0.00000000E+00  0.00000000E+00
  0.00000000E+00  0.00000000E+00  0.00000000E+00
  0.00000000E+00  0.00000000E+00  0.00000000E+00
  0.00000000E+00  0.00000000E+00  0.00000000E+00
  0.00000000E+00  0.00000000E+00  0.00000000E+00
  0.00000000E+00  0.00000000E+00  0.00000000E+00
  0.00000000E+00  0.00000000E+00  0.00000000E+00
  0.00000000E+00  0.00000000E+00  0.00000000E+00
  0.00000000E+00  0.00000000E+00  0.00000000E+00
  0.00000000E+00  0.00000000E+00  0.00000000E+00
  0.00000000E+00  0.00000000E+00  0.00000000E+00
  0.00000000E+00  0.00000000E+00  0.00000000E+00
  0.00000000E+00  0.00000000E+00  0.00000000E+00
  0.00000000E+00  0.00000000E+00  0.00000000E+00
  0.00000000E+00  0.00000000E+00  0.00000000E+00
  0.00000000E+00  0.00000000E+00  0.00000000E+00
  0.00000000E+00  0.00000000E+00  0.00000000E+00
  0.00000000E+00  0.00000000E+00  0.00000000E+00
  0.00000000E+00  0.00000000E+00  0.00000000E+00
  0.00000000E+00  0.00000000E+00  0.00000000E+00
  0.00000000E+00  0.00000000E+00  0.00000000E+00
  0.00000000E+00  0.00000000E+00  0.00000000E+00
  0.00000000E+00  0.00000000E+00  0.00000000E+00
  0.00000000E+00  0.00000000E+00  0.00000000E+00
  0.00000000E+00  0.00000000E+00  0.00000000E+00
  0.00000000E+00  0.00000000E+00  0.00000000E+00
