Zn_H                                    
   1.00000000000000     
    11.9159189941672903   -0.0004587588282519    0.0008673350938188
     0.0025717991018813   32.4065749602003095   -2.0955422559799639
     0.0017356375051123   -0.3980024676425367    6.7492076330818023
   C    Zn   H    N    O 
    80     4    32    24    16
Direct
  0.9186818053711718  0.9583728507973319  0.1307318712453949
  0.8306909581812505  0.9517371284599392  0.4156577896659215
  0.9187908404540224  0.7975206153995131  0.9145106820368838
  0.5809080973702834  0.4583607269629724  0.6300761739756098
  0.6690211374409429  0.3039504937507118  0.1285674066005669
  0.1689223666128825  0.8040248094805804  0.1289974765842885
  0.6689892900786418  0.4517302665222616  0.9148189336040460
  0.5811042894558724  0.2975151807882952  0.4138150950033648
  0.3310039441080050  0.4517813345450321  0.4148679908931854
  0.0811016632760371  0.7975124249707974  0.4142277581746825
  0.1688981985814237  0.9517841912624121  0.9153248432037842
  0.3308915309166309  0.3039974238672087  0.6284710543036525
  0.8309118781951952  0.8040107535570513  0.6294087426844612
  0.0808125946021860  0.9583680935567997  0.6305102312134352
  0.4187083485861365  0.2974885178570688  0.9136214331668171
  0.4190812560098465  0.4583390900330073  0.1299308299679538
  0.7475360847178507  0.0318870173099413  0.1244113204552164
  0.8645287299547135  0.0507437190506366  0.4307687517067365
  0.8657225598860236  0.7050192432981532  0.6154157565975567
  0.6348469806360697  0.5507463947605302  0.9301168652057896
  0.6340464731821314  0.2049685405966812  0.1152035479028868
  0.2514708028720563  0.7238788784298507  0.4212918375006325
  0.7519774771019101  0.5319328063538649  0.6237525865678322
  0.7512034528359166  0.2238504440992557  0.4213400383905466
  0.2483380926038947  0.5319605292103802  0.1234988784125761
  0.1342269862492032  0.7050083796678805  0.1153400164861438
  0.1346356547737528  0.0507869112920503  0.9302287361671446
  0.3655520905287304  0.2049808609870212  0.6148980240556199
  0.7484339534926008  0.7238606710026900  0.9215849836153325
  0.2517461602721625  0.0319350512023036  0.6238720687436015
  0.2481672299734683  0.2238932173158901  0.9207947679721542
  0.3653963234357462  0.5507870930157424  0.4297700324467968
  0.7191640286098249  0.0764282520694337  0.1253055791000790
  0.8335453387853278  0.0949031648601775  0.4266655269186685
  0.8349128170291209  0.6608485417615952  0.6195779744811958
  0.6657419869522627  0.5949155693132440  0.9260476878510957
  0.6646487696957735  0.1607935508542084  0.1197097197387293
  0.2797232461699650  0.6793272087991156  0.4206067547075634
  0.7802621716678999  0.5764845063070041  0.6246980515981022
  0.7791034771180350  0.1792809108352742  0.4210747796315815
  0.2197466064604825  0.5764882283801285  0.1248079410149856
  0.1649582953381881  0.6608362998857942  0.1197077416868240
  0.1655974698480094  0.0949496935202134  0.9261288010008002
  0.3349198346875966  0.1608129558956648  0.6195546292581398
  0.7203123206411988  0.6792996307277193  0.9208912462897700
  0.2803238894102478  0.0764598167303561  0.6250394423589469
  0.2200850858071064  0.1793321240940458  0.9204476521509690
  0.3344274798133497  0.5949514991457079  0.4257868104178542
  0.6500137923563258  0.0885933531227039  0.9773744208634483
  0.8754906584099587  0.1250651662900850  0.5716208991690053
  0.8769640454746082  0.6306938303964742  0.4745791871532532
  0.6238705775461924  0.6250546457820008  0.0712524246738795
  0.6226775872280044  0.1306248453167882  0.9747547656345432
  0.3490422429598752  0.6671504497780703  0.5682598090734103
  0.8495539834206127  0.5886611954761278  0.4769234443831110
  0.8482419797800560  0.1671061908601388  0.5690016614573992
  0.1503433070680700  0.5886448299123899  0.9772401618960416
  0.1228390992164918  0.6306670921449609  0.9749215832030629
  0.1235122265665041  0.1251280424003767  0.0709279985110385
  0.3770731715956757  0.1306354381297439  0.4747990320709476
  0.6511971434455930  0.6670955785616428  0.0688499125079503
  0.3496795469902310  0.0886075387500256  0.4772933237076415
  0.1508289164927348  0.1671625093975848  0.0682918206665946
  0.3764448732694134  0.6251168079587828  0.5706578167974499
  0.8500922368570798  0.9795029691343800  0.2769972776463447
  0.8503887883188597  0.7763035107716760  0.7683185296332837
  0.6494676467596676  0.4795071431481261  0.7762640745859812
  0.6495046016887400  0.2762703035841625  0.2676190729852337
  0.1495336362523716  0.7763086549451614  0.2679330906519866
  0.3506034432362668  0.4795306286723573  0.2762033790792415
  0.1493513681915246  0.9795345155790187  0.7766652869875514
  0.3502792428274191  0.2762884425123389  0.7674127653125140
  0.7627017182337568  0.1065236852289715  0.2748188019712430
  0.7639897144392762  0.6492223893671252  0.7713620742805674
  0.7366064400057226  0.6065614548790705  0.7742231853987818
  0.7353742799859901  0.1491822610013003  0.2717373441071871
  0.2359730655033729  0.6492287981242697  0.2713204450715878
  0.2634108430195283  0.6065742737310700  0.2742174480927488
  0.2366252062574645  0.1065558897265007  0.7744411034477352
  0.2639474857524107  0.1492132948369473  0.7713098639054650
  0.0389412636688107  0.8779656490960264  0.0224261685585745
  0.9607258707593758  0.8779145755378579  0.5223260104158527
  0.4608336602834200  0.3779173849019912  0.5217126816205919
  0.5390685290021509  0.3778640834291593  0.0215393105426642
  0.4314585341318349  0.1403947875756444  0.3594901411489317
  0.8817828250573925  0.5648045743323138  0.3635576547707302
  0.8805557334864105  0.1909586508070831  0.6822745582850018
  0.6179402611553186  0.0647322038007800  0.8639248216715174
  0.6190450529955314  0.6909268139850369  0.1824349035014876
  0.5696729249592138  0.6152511599593851  0.1867340825853603
  0.0684148577946715  0.6404226390598211  0.8597180617579312
  0.0690817887023485  0.1153634590676518  0.1861794779847301
  0.9313499403314509  0.6404690556107226  0.3592990742287583
  0.1184594816142308  0.1910211347883148  0.1815171652315897
  0.1182441632542606  0.5647849652892205  0.8638232795727419
  0.3812908226055427  0.6909970447500129  0.6816164238751696
  0.4308399353123136  0.6153492872168869  0.6858850762071285
  0.5684616419689021  0.1403881657634756  0.8592653816364404
  0.9297439439174866  0.1152771967820243  0.6869790296067180
  0.3818308556010095  0.0647398391466396  0.3639070317760513
  0.7154509842939589  0.4559073804950700  0.0540230003024575
  0.2845138859033156  0.2997709529283554  0.4891626800121003
  0.4537658458323577  0.4691505090789647  0.9973758444546377
  0.0466058690371582  0.7867276683359563  0.5469899494312926
  0.2154205284504727  0.9559849179435034  0.0544873918060986
  0.4532243459510426  0.2866873023460670  0.0463042602723860
  0.9533004162200456  0.9692033552359831  0.9981846346887693
  0.7844388859825955  0.7997702226015875  0.4901998370361014
  0.0461409985342911  0.9691701293809771  0.4979651405344185
  0.5462411996404768  0.4692007896986397  0.4976247195328014
  0.7154630302571832  0.2996874759591179  0.9892540075832983
  0.7841831433466098  0.9558981026962172  0.5548802206913521
  0.5465843137841233  0.2867542935510201  0.5466184939116658
  0.2845641065496736  0.4559946302236568  0.5541652975083267
  0.2152845568304684  0.7998041167444825  0.9896182954372179
  0.9532875593297305  0.7867297306322740  0.0472208064709037
  0.9400737482937558  0.9203534678755076  0.1801747683851929
  0.8854394346570018  0.9159501789465452  0.3548567174428428
  0.9399850424977458  0.8355392769636154  0.8648868062799551
  0.5596632104150245  0.4203241744739401  0.6794440115398075
  0.6144259791701998  0.3397976282539048  0.1890705489414160
  0.1143159494242454  0.8398548617462538  0.1897364231178926
  0.6143435472048253  0.4159251315198773  0.8540372337678050
  0.5598766047707926  0.3355159731341502  0.3640173972467196
  0.3855487840902256  0.4159463267618548  0.3540744024519853
  0.0598096191459376  0.8355257985642126  0.3646650013756556
  0.1142392366140541  0.9159727284178274  0.8546481748200918
  0.3854952178422337  0.3398251072704497  0.6891196200692491
  0.8854530441553123  0.8398536951109321  0.6900189262761245
  0.0595843287166531  0.9203384147603799  0.6799890997533637
  0.4400060983136953  0.3354965421556244  0.8639807951218543
  0.4402160616998003  0.4202984751008714  0.1793407404443386
  0.8155583089575984  0.0216371330762328  0.2830558903307718
  0.8162164299435659  0.7341328308371473  0.7625682197534402
  0.6838801460489137  0.5216571812887736  0.7823417290515806
  0.6836043068768447  0.2340979629041939  0.2621272685990377
  0.1837542130133514  0.7341388000177105  0.2622585365905366
  0.3162626968507070  0.5216865114708753  0.2822214301399768
  0.1837642590617321  0.0216804077435100  0.7826331624540472
  0.3160167781609857  0.2341288123889242  0.7617970914049081
  0.7144554559568945  0.0050626752403318  0.9936913477185101
  0.9293876280767392  0.0397987792413659  0.5556731369179957
  0.9308226741659382  0.7159598903052711  0.4907839636099709
  0.5700148519803747  0.5397820371569466  0.0551011764902540
  0.5690786963611032  0.2159097133464130  0.9904524512355195
  0.2844488292073990  0.7507175812930100  0.5520113478821500
  0.7852304998335669  0.5051157674295794  0.4931049156564313
  0.7843409635926264  0.2507061123316063  0.5518536600858965
  0.2155007591825466  0.5051652084614844  0.9924332084591398
  0.0691744813604558  0.7159442466384789  0.9907042988113233
  0.0696588036927039  0.0398365076609153  0.0550113387893489
  0.4305482273365087  0.2158922582478482  0.4900362453017664
  0.7153394330459264  0.7506854932705167  0.0523182645048337
  0.2846085645736736  0.0051198511946566  0.4928715339748990
  0.2149703615375174  0.2507499282320609  0.0512759991094569
  0.4303690704725867  0.5398324031219701  0.5544779937552065
 
  0.00000000E+00  0.00000000E+00  0.00000000E+00
  0.00000000E+00  0.00000000E+00  0.00000000E+00
  0.00000000E+00  0.00000000E+00  0.00000000E+00
  0.00000000E+00  0.00000000E+00  0.00000000E+00
  0.00000000E+00  0.00000000E+00  0.00000000E+00
  0.00000000E+00  0.00000000E+00  0.00000000E+00
  0.00000000E+00  0.00000000E+00  0.00000000E+00
  0.00000000E+00  0.00000000E+00  0.00000000E+00
  0.00000000E+00  0.00000000E+00  0.00000000E+00
  0.00000000E+00  0.00000000E+00  0.00000000E+00
  0.00000000E+00  0.00000000E+00  0.00000000E+00
  0.00000000E+00  0.00000000E+00  0.00000000E+00
  0.00000000E+00  0.00000000E+00  0.00000000E+00
  0.00000000E+00  0.00000000E+00  0.00000000E+00
  0.00000000E+00  0.00000000E+00  0.00000000E+00
  0.00000000E+00  0.00000000E+00  0.00000000E+00
  0.00000000E+00  0.00000000E+00  0.00000000E+00
  0.00000000E+00  0.00000000E+00  0.00000000E+00
  0.00000000E+00  0.00000000E+00  0.00000000E+00
  0.00000000E+00  0.00000000E+00  0.00000000E+00
  0.00000000E+00  0.00000000E+00  0.00000000E+00
  0.00000000E+00  0.00000000E+00  0.00000000E+00
  0.00000000E+00  0.00000000E+00  0.00000000E+00
  0.00000000E+00  0.00000000E+00  0.00000000E+00
  0.00000000E+00  0.00000000E+00  0.00000000E+00
  0.00000000E+00  0.00000000E+00  0.00000000E+00
  0.00000000E+00  0.00000000E+00  0.00000000E+00
  0.00000000E+00  0.00000000E+00  0.00000000E+00
  0.00000000E+00  0.00000000E+00  0.00000000E+00
  0.00000000E+00  0.00000000E+00  0.00000000E+00
  0.00000000E+00  0.00000000E+00  0.00000000E+00
  0.00000000E+00  0.00000000E+00  0.00000000E+00
  0.00000000E+00  0.00000000E+00  0.00000000E+00
  0.00000000E+00  0.00000000E+00  0.00000000E+00
  0.00000000E+00  0.00000000E+00  0.00000000E+00
  0.00000000E+00  0.00000000E+00  0.00000000E+00
  0.00000000E+00  0.00000000E+00  0.00000000E+00
  0.00000000E+00  0.00000000E+00  0.00000000E+00
  0.00000000E+00  0.00000000E+00  0.00000000E+00
  0.00000000E+00  0.00000000E+00  0.00000000E+00
  0.00000000E+00  0.00000000E+00  0.00000000E+00
  0.00000000E+00  0.00000000E+00  0.00000000E+00
  0.00000000E+00  0.00000000E+00  0.00000000E+00
  0.00000000E+00  0.00000000E+00  0.00000000E+00
  0.00000000E+00  0.00000000E+00  0.00000000E+00
  0.00000000E+00  0.00000000E+00  0.00000000E+00
  0.00000000E+00  0.00000000E+00  0.00000000E+00
  0.00000000E+00  0.00000000E+00  0.00000000E+00
  0.00000000E+00  0.00000000E+00  0.00000000E+00
  0.00000000E+00  0.00000000E+00  0.00000000E+00
  0.00000000E+00  0.00000000E+00  0.00000000E+00
  0.00000000E+00  0.00000000E+00  0.00000000E+00
  0.00000000E+00  0.00000000E+00  0.00000000E+00
  0.00000000E+00  0.00000000E+00  0.00000000E+00
  0.00000000E+00  0.00000000E+00  0.00000000E+00
  0.00000000E+00  0.00000000E+00  0.00000000E+00
  0.00000000E+00  0.00000000E+00  0.00000000E+00
  0.00000000E+00  0.00000000E+00  0.00000000E+00
  0.00000000E+00  0.00000000E+00  0.00000000E+00
  0.00000000E+00  0.00000000E+00  0.00000000E+00
  0.00000000E+00  0.00000000E+00  0.00000000E+00
  0.00000000E+00  0.00000000E+00  0.00000000E+00
  0.00000000E+00  0.00000000E+00  0.00000000E+00
  0.00000000E+00  0.00000000E+00  0.00000000E+00
  0.00000000E+00  0.00000000E+00  0.00000000E+00
  0.00000000E+00  0.00000000E+00  0.00000000E+00
  0.00000000E+00  0.00000000E+00  0.00000000E+00
  0.00000000E+00  0.00000000E+00  0.00000000E+00
  0.00000000E+00  0.00000000E+00  0.00000000E+00
  0.00000000E+00  0.00000000E+00  0.00000000E+00
  0.00000000E+00  0.00000000E+00  0.00000000E+00
  0.00000000E+00  0.00000000E+00  0.00000000E+00
  0.00000000E+00  0.00000000E+00  0.00000000E+00
  0.00000000E+00  0.00000000E+00  0.00000000E+00
  0.00000000E+00  0.00000000E+00  0.00000000E+00
  0.00000000E+00  0.00000000E+00  0.00000000E+00
  0.00000000E+00  0.00000000E+00  0.00000000E+00
  0.00000000E+00  0.00000000E+00  0.00000000E+00
  0.00000000E+00  0.00000000E+00  0.00000000E+00
  0.00000000E+00  0.00000000E+00  0.00000000E+00
  0.00000000E+00  0.00000000E+00  0.00000000E+00
  0.00000000E+00  0.00000000E+00  0.00000000E+00
  0.00000000E+00  0.00000000E+00  0.00000000E+00
  0.00000000E+00  0.00000000E+00  0.00000000E+00
  0.00000000E+00  0.00000000E+00  0.00000000E+00
  0.00000000E+00  0.00000000E+00  0.00000000E+00
  0.00000000E+00  0.00000000E+00  0.00000000E+00
  0.00000000E+00  0.00000000E+00  0.00000000E+00
  0.00000000E+00  0.00000000E+00  0.00000000E+00
  0.00000000E+00  0.00000000E+00  0.00000000E+00
  0.00000000E+00  0.00000000E+00  0.00000000E+00
  0.00000000E+00  0.00000000E+00  0.00000000E+00
  0.00000000E+00  0.00000000E+00  0.00000000E+00
  0.00000000E+00  0.00000000E+00  0.00000000E+00
  0.00000000E+00  0.00000000E+00  0.00000000E+00
  0.00000000E+00  0.00000000E+00  0.00000000E+00
  0.00000000E+00  0.00000000E+00  0.00000000E+00
  0.00000000E+00  0.00000000E+00  0.00000000E+00
  0.00000000E+00  0.00000000E+00  0.00000000E+00
  0.00000000E+00  0.00000000E+00  0.00000000E+00
  0.00000000E+00  0.00000000E+00  0.00000000E+00
  0.00000000E+00  0.00000000E+00  0.00000000E+00
  0.00000000E+00  0.00000000E+00  0.00000000E+00
  0.00000000E+00  0.00000000E+00  0.00000000E+00
  0.00000000E+00  0.00000000E+00  0.00000000E+00
  0.00000000E+00  0.00000000E+00  0.00000000E+00
  0.00000000E+00  0.00000000E+00  0.00000000E+00
  0.00000000E+00  0.00000000E+00  0.00000000E+00
  0.00000000E+00  0.00000000E+00  0.00000000E+00
  0.00000000E+00  0.00000000E+00  0.00000000E+00
  0.00000000E+00  0.00000000E+00  0.00000000E+00
  0.00000000E+00  0.00000000E+00  0.00000000E+00
  0.00000000E+00  0.00000000E+00  0.00000000E+00
  0.00000000E+00  0.00000000E+00  0.00000000E+00
  0.00000000E+00  0.00000000E+00  0.00000000E+00
  0.00000000E+00  0.00000000E+00  0.00000000E+00
  0.00000000E+00  0.00000000E+00  0.00000000E+00
  0.00000000E+00  0.00000000E+00  0.00000000E+00
  0.00000000E+00  0.00000000E+00  0.00000000E+00
  0.00000000E+00  0.00000000E+00  0.00000000E+00
  0.00000000E+00  0.00000000E+00  0.00000000E+00
  0.00000000E+00  0.00000000E+00  0.00000000E+00
  0.00000000E+00  0.00000000E+00  0.00000000E+00
  0.00000000E+00  0.00000000E+00  0.00000000E+00
  0.00000000E+00  0.00000000E+00  0.00000000E+00
  0.00000000E+00  0.00000000E+00  0.00000000E+00
  0.00000000E+00  0.00000000E+00  0.00000000E+00
  0.00000000E+00  0.00000000E+00  0.00000000E+00
  0.00000000E+00  0.00000000E+00  0.00000000E+00
  0.00000000E+00  0.00000000E+00  0.00000000E+00
  0.00000000E+00  0.00000000E+00  0.00000000E+00
  0.00000000E+00  0.00000000E+00  0.00000000E+00
  0.00000000E+00  0.00000000E+00  0.00000000E+00
  0.00000000E+00  0.00000000E+00  0.00000000E+00
  0.00000000E+00  0.00000000E+00  0.00000000E+00
  0.00000000E+00  0.00000000E+00  0.00000000E+00
  0.00000000E+00  0.00000000E+00  0.00000000E+00
  0.00000000E+00  0.00000000E+00  0.00000000E+00
  0.00000000E+00  0.00000000E+00  0.00000000E+00
  0.00000000E+00  0.00000000E+00  0.00000000E+00
  0.00000000E+00  0.00000000E+00  0.00000000E+00
  0.00000000E+00  0.00000000E+00  0.00000000E+00
  0.00000000E+00  0.00000000E+00  0.00000000E+00
  0.00000000E+00  0.00000000E+00  0.00000000E+00
  0.00000000E+00  0.00000000E+00  0.00000000E+00
  0.00000000E+00  0.00000000E+00  0.00000000E+00
  0.00000000E+00  0.00000000E+00  0.00000000E+00
  0.00000000E+00  0.00000000E+00  0.00000000E+00
  0.00000000E+00  0.00000000E+00  0.00000000E+00
  0.00000000E+00  0.00000000E+00  0.00000000E+00
  0.00000000E+00  0.00000000E+00  0.00000000E+00
  0.00000000E+00  0.00000000E+00  0.00000000E+00
  0.00000000E+00  0.00000000E+00  0.00000000E+00
  0.00000000E+00  0.00000000E+00  0.00000000E+00
  0.00000000E+00  0.00000000E+00  0.00000000E+00
  0.00000000E+00  0.00000000E+00  0.00000000E+00
