Co_E                                    
   1.00000000000000     
     8.2604952866989425   -0.0003385066882875    0.0004836251639034
    -0.0001153124744854   32.6841741197186195   -2.7971940454549320
    -0.0004069668957668   -0.6241712490982047    6.6472091787879775
   C    Co   H    N    O 
    80     4    32    24    16
Direct
  0.8890826732409920  0.9528391751420386  0.1153063124245222
  0.7523990126535125  0.9471597006509356  0.3969946017187382
  0.8956444368273182  0.7949645280086983  0.8599852553277358
  0.6106186359683221  0.4528465685433645  0.6153399873214482
  0.7417062048070093  0.3000636233741574  0.0781381792368165
  0.2466276851092246  0.8012164909012185  0.0795742710966181
  0.7473459724197724  0.4471520850730926  0.8969696718370272
  0.6041752442209187  0.2949560409765724  0.3599869680755532
  0.2586971059121908  0.4483090480218905  0.3979375983109392
  0.1098960226102292  0.7955212378773879  0.3612239818705518
  0.2411264658343697  0.9482986340556820  0.8979827199862100
  0.2532305558053309  0.3011823288553614  0.5793862123879094
  0.7579524069408023  0.8000906144355113  0.5783028459216766
  0.1034270440799432  0.9533928154939844  0.6162536834769767
  0.3898725821527833  0.2954948715717265  0.8611180385136734
  0.3963786437418975  0.4533945564750184  0.1161724798346668
  0.6798707984252914  0.0281659323593573  0.0978892657207737
  0.8196319700936385  0.0454626183396556  0.4351491311993527
  0.8306156588276181  0.7018912933199033  0.5409542588034242
  0.6801722858124819  0.5454744761508792  0.9352378328555133
  0.6691493749407158  0.2018706153216385  0.0408900800227840
  0.3193092038239485  0.7202047625474748  0.3785807801335324
  0.8198421422338384  0.5281934128838301  0.5979603882960873
  0.8096106684109259  0.2190650080951642  0.3778331562862789
  0.1909780224257389  0.5292489658392512  0.0978623620442676
  0.1799663465789720  0.7028935615929157  0.0410320167478559
  0.1686274829977350  0.0464778432284803  0.9349554344414841
  0.3198065632310119  0.2028584828031583  0.5408855954648857
  0.6901298091131309  0.7190894954883973  0.8778771417292930
  0.3088917067860066  0.0292233665917649  0.5978811746478456
  0.1803504596971237  0.2201680936564472  0.8783427200246265
  0.3311460879206507  0.5464898551309716  0.4349591341338268
  0.6817339037624848  0.0727345401089607  0.0844737179466009
  0.8102109092321967  0.0898553262882587  0.4206798693554532
  0.8216484805856012  0.6574759188444261  0.5554663976810517
  0.6895751110866115  0.5898756321219238  0.9208298532726431
  0.6780812041118409  0.1574518499509736  0.0553658803316850
  0.3177487993225583  0.6756234098335838  0.3917062049382238
  0.8180167744072904  0.5727651489088714  0.5846196168477249
  0.8068344354117940  0.1745267077084307  0.3914603530296006
  0.1932117386968386  0.5738000776965322  0.0844715466914892
  0.1894358189841370  0.6584905399310372  0.0554394404273637
  0.1779802596905071  0.0908835651330477  0.9206057096636968
  0.3103511369354948  0.1584530495535645  0.5552939198403735
  0.6928746331901436  0.6745538624394882  0.8915441118571081
  0.3066272314405651  0.0737698731553138  0.5844403698527429
  0.1819601298410802  0.1755885319266213  0.8915256197323913
  0.3217619310266286  0.5909030169478484  0.4206769136646145
  0.6203455013751338  0.0855761266100856  0.9126627656261022
  0.8709348572151256  0.1195202839004494  0.5773889231635465
  0.8826164261419578  0.6278026051311301  0.3989095269764249
  0.6287934484993087  0.6195435274944856  0.0774967315359163
  0.6171392050904103  0.1277760518193602  0.8987962720325129
  0.3791701898781312  0.6627915742317825  0.5635061887618988
  0.8794276284110083  0.5856034478424448  0.4128010322950360
  0.8680109330156611  0.1616980938718768  0.5633960938457676
  0.1320197135580656  0.5866251747101856  0.9125459120466175
  0.1288349252448668  0.6288140895318293  0.8986645178234696
  0.1171687500449323  0.1205730503401199  0.0771937802894769
  0.3709595119994376  0.1287697009707713  0.3985427087506821
  0.6317031438484264  0.6617215750413976  0.0634790498675244
  0.3678044692910305  0.0865833912560845  0.4124908539213834
  0.1205030357902288  0.1627649813671894  0.0633277789747595
  0.3825421539565426  0.6205946313253392  0.5772945028337446
  0.7872856369252190  0.9744450673422449  0.2640582618183203
  0.7951277676533266  0.7729307313537532  0.7110509839326156
  0.7124750333006418  0.4744506798537458  0.7640585776524063
  0.7046345400290761  0.2729104952642913  0.2110062499500458
  0.2117315702968767  0.7739195582839145  0.2124718745926586
  0.2958449500580258  0.4754461485017956  0.2650385535789326
  0.2039897669448933  0.9754342551597333  0.7651233671031861
  0.2880641815802676  0.2738873972818681  0.7123487327630897
  0.7448611379435661  0.1022699775278681  0.2455225662902194
  0.7561512640549850  0.6450411041202244  0.7305476115242087
  0.7549089654892924  0.6023005707524192  0.7456766670327113
  0.7435936079495136  0.1450130454726875  0.2304254701177797
  0.2547996882164867  0.6460780101955592  0.2305937276100494
  0.2561925925049238  0.6033333263889773  0.2456409257980425
  0.2435773365879186  0.1033013359410475  0.7455547790443333
  0.2449561323381033  0.1460432449666129  0.7304476521743766
  0.0556480464140350  0.8743110636821712  0.9884825169147149
  0.9433917499953353  0.8740679532570752  0.4880283408850445
  0.4441493855058738  0.3742963844554481  0.4884144424056629
  0.5562913659138857  0.3740537878072985  0.9879799447804771
  0.4202811544329208  0.1389866130421140  0.2648965457368035
  0.9233072942645961  0.5620462966089903  0.2892121253985138
  0.9120661166919248  0.1852356258474401  0.6869337872182513
  0.5764357732659420  0.0620257223335230  0.7890706843692641
  0.5876137270607202  0.6852536678965251  0.1870058886604582
  0.5794482257209737  0.6093068865914475  0.2110718480543881
  0.0794867728710145  0.6390370294286569  0.7650542123420152
  0.0676284215006930  0.1103596092971841  0.2107532190238075
  0.9321050042968935  0.6380318518257511  0.2653573540818286
  0.0767576499908955  0.1863344496753641  0.1869310393739738
  0.0882133364626725  0.5630712644093947  0.7889051964710205
  0.4229014891757288  0.6863498937055184  0.6871717903318739
  0.4321003159538463  0.6103716793271303  0.7108154373463478
  0.5676196469676427  0.1380049522167894  0.7652631447611711
  0.9202674924176719  0.1092797494910158  0.7109559416681037
  0.4116416665074354  0.0630268595578158  0.2888856947150273
  0.8188779321789070  0.4518534448202871  0.0355874234525331
  0.1816899180269189  0.2964860212038900  0.4407536005203738
  0.4511437177226583  0.4637145706513266  0.9866020910242455
  0.0560467067474733  0.7849227916984205  0.4906435481632769
  0.3127226903690428  0.9533363404701873  0.0365192170625477
  0.4436534397627128  0.2849335335012739  0.9906331024954298
  0.9429244260951037  0.9634331199967576  0.9858679790155662
  0.6863069147617296  0.7950882705560858  0.4397877028022563
  0.0485803642642253  0.9637571283377682  0.4868146820340584
  0.5567648581305846  0.4634243599175676  0.4858924995106122
  0.8133413022695564  0.2950854965438907  0.9395856716532975
  0.6809851723392697  0.9519086296770851  0.5356949111985827
  0.5494725976299151  0.2846283015398896  0.4895688421541848
  0.1870566872136052  0.4533170497033652  0.5364579760855506
  0.3181395093737507  0.7964892620483042  0.9409651471461942
  0.9504784150848309  0.7845915582618375  0.9893784807769066
  0.9162027577224805  0.9149441566652641  0.1574646495145373
  0.8317906688289298  0.9110350112785923  0.3308709246082273
  0.9199598016182833  0.8329957489817801  0.8181228698021101
  0.5834198705260150  0.4149571019229867  0.6575269217918134
  0.6647721699897176  0.3365259616261156  0.1445522575805143
  0.1671780457639400  0.8373298679157841  0.1456536352674931
  0.6678796152882072  0.4110379653083882  0.8308782868626707
  0.5797957754663230  0.3329767382756117  0.3180341780692046
  0.3356685618640043  0.4118416538785681  0.3317192476478397
  0.0827381972474015  0.8334140610739027  0.3190342112059099
  0.1641758596577318  0.9118261069016569  0.8317207047166590
  0.3327009935115655  0.3372934558722704  0.6455035165129814
  0.8348871341468680  0.8365564236120591  0.6447180993993271
  0.0791147683320403  0.9153754486183345  0.6582850341270188
  0.4171076667946707  0.3333813814460385  0.8188929565397274
  0.4207188415581058  0.4153842119616868  0.1582692049663308
  0.7515326202924300  0.0171559065628770  0.2732784708300997
  0.7614041597349512  0.7301336640086902  0.7023462439589920
  0.7482660695293859  0.5171647305935423  0.7733503994657767
  0.7383503296463871  0.2301144170380169  0.2023146444030388
  0.2476340455588684  0.7312168509358514  0.2032227331582845
  0.2619959229058892  0.5182281452382966  0.2735843463746548
  0.2378252548554087  0.0182161846535678  0.7736335075730523
  0.2521075845234577  0.2311855567812984  0.7030589402439773
  0.6203932230401250  0.0018339049018365  0.9642812460943873
  0.8847900169307863  0.0335356778259381  0.5803133712687156
  0.8960097849862407  0.7139073496205626  0.3961882633359082
  0.6150326563231587  0.5335492712446097  0.0804112185830803
  0.6037977402641630  0.2138925940073051  0.8961182098631255
  0.3785055584971744  0.7465193753248087  0.5124902856458462
  0.8792197094000755  0.5018797741469356  0.4641919434471191
  0.8697344597904930  0.2453180080272617  0.5113045412874584
  0.1314573977523565  0.5029626937306659  0.9640315953903880
  0.1151206895370009  0.7148262240042484  0.8956996379415472
  0.1029571404973524  0.0344833700327172  0.0795981441957636
  0.3846992868539232  0.2147923289238349  0.3955865835720118
  0.6300179173958256  0.7453529752527004  0.0113083667530773
  0.3684262148887356  0.0029235393798501  0.4641329904041527
  0.1210531292000212  0.2464719713546870  0.0122133219478044
  0.3968251588445568  0.5344934535201205  0.5795816704615575
 
  0.00000000E+00  0.00000000E+00  0.00000000E+00
  0.00000000E+00  0.00000000E+00  0.00000000E+00
  0.00000000E+00  0.00000000E+00  0.00000000E+00
  0.00000000E+00  0.00000000E+00  0.00000000E+00
  0.00000000E+00  0.00000000E+00  0.00000000E+00
  0.00000000E+00  0.00000000E+00  0.00000000E+00
  0.00000000E+00  0.00000000E+00  0.00000000E+00
  0.00000000E+00  0.00000000E+00  0.00000000E+00
  0.00000000E+00  0.00000000E+00  0.00000000E+00
  0.00000000E+00  0.00000000E+00  0.00000000E+00
  0.00000000E+00  0.00000000E+00  0.00000000E+00
  0.00000000E+00  0.00000000E+00  0.00000000E+00
  0.00000000E+00  0.00000000E+00  0.00000000E+00
  0.00000000E+00  0.00000000E+00  0.00000000E+00
  0.00000000E+00  0.00000000E+00  0.00000000E+00
  0.00000000E+00  0.00000000E+00  0.00000000E+00
  0.00000000E+00  0.00000000E+00  0.00000000E+00
  0.00000000E+00  0.00000000E+00  0.00000000E+00
  0.00000000E+00  0.00000000E+00  0.00000000E+00
  0.00000000E+00  0.00000000E+00  0.00000000E+00
  0.00000000E+00  0.00000000E+00  0.00000000E+00
  0.00000000E+00  0.00000000E+00  0.00000000E+00
  0.00000000E+00  0.00000000E+00  0.00000000E+00
  0.00000000E+00  0.00000000E+00  0.00000000E+00
  0.00000000E+00  0.00000000E+00  0.00000000E+00
  0.00000000E+00  0.00000000E+00  0.00000000E+00
  0.00000000E+00  0.00000000E+00  0.00000000E+00
  0.00000000E+00  0.00000000E+00  0.00000000E+00
  0.00000000E+00  0.00000000E+00  0.00000000E+00
  0.00000000E+00  0.00000000E+00  0.00000000E+00
  0.00000000E+00  0.00000000E+00  0.00000000E+00
  0.00000000E+00  0.00000000E+00  0.00000000E+00
  0.00000000E+00  0.00000000E+00  0.00000000E+00
  0.00000000E+00  0.00000000E+00  0.00000000E+00
  0.00000000E+00  0.00000000E+00  0.00000000E+00
  0.00000000E+00  0.00000000E+00  0.00000000E+00
  0.00000000E+00  0.00000000E+00  0.00000000E+00
  0.00000000E+00  0.00000000E+00  0.00000000E+00
  0.00000000E+00  0.00000000E+00  0.00000000E+00
  0.00000000E+00  0.00000000E+00  0.00000000E+00
  0.00000000E+00  0.00000000E+00  0.00000000E+00
  0.00000000E+00  0.00000000E+00  0.00000000E+00
  0.00000000E+00  0.00000000E+00  0.00000000E+00
  0.00000000E+00  0.00000000E+00  0.00000000E+00
  0.00000000E+00  0.00000000E+00  0.00000000E+00
  0.00000000E+00  0.00000000E+00  0.00000000E+00
  0.00000000E+00  0.00000000E+00  0.00000000E+00
  0.00000000E+00  0.00000000E+00  0.00000000E+00
  0.00000000E+00  0.00000000E+00  0.00000000E+00
  0.00000000E+00  0.00000000E+00  0.00000000E+00
  0.00000000E+00  0.00000000E+00  0.00000000E+00
  0.00000000E+00  0.00000000E+00  0.00000000E+00
  0.00000000E+00  0.00000000E+00  0.00000000E+00
  0.00000000E+00  0.00000000E+00  0.00000000E+00
  0.00000000E+00  0.00000000E+00  0.00000000E+00
  0.00000000E+00  0.00000000E+00  0.00000000E+00
  0.00000000E+00  0.00000000E+00  0.00000000E+00
  0.00000000E+00  0.00000000E+00  0.00000000E+00
  0.00000000E+00  0.00000000E+00  0.00000000E+00
  0.00000000E+00  0.00000000E+00  0.00000000E+00
  0.00000000E+00  0.00000000E+00  0.00000000E+00
  0.00000000E+00  0.00000000E+00  0.00000000E+00
  0.00000000E+00  0.00000000E+00  0.00000000E+00
  0.00000000E+00  0.00000000E+00  0.00000000E+00
  0.00000000E+00  0.00000000E+00  0.00000000E+00
  0.00000000E+00  0.00000000E+00  0.00000000E+00
  0.00000000E+00  0.00000000E+00  0.00000000E+00
  0.00000000E+00  0.00000000E+00  0.00000000E+00
  0.00000000E+00  0.00000000E+00  0.00000000E+00
  0.00000000E+00  0.00000000E+00  0.00000000E+00
  0.00000000E+00  0.00000000E+00  0.00000000E+00
  0.00000000E+00  0.00000000E+00  0.00000000E+00
  0.00000000E+00  0.00000000E+00  0.00000000E+00
  0.00000000E+00  0.00000000E+00  0.00000000E+00
  0.00000000E+00  0.00000000E+00  0.00000000E+00
  0.00000000E+00  0.00000000E+00  0.00000000E+00
  0.00000000E+00  0.00000000E+00  0.00000000E+00
  0.00000000E+00  0.00000000E+00  0.00000000E+00
  0.00000000E+00  0.00000000E+00  0.00000000E+00
  0.00000000E+00  0.00000000E+00  0.00000000E+00
  0.00000000E+00  0.00000000E+00  0.00000000E+00
  0.00000000E+00  0.00000000E+00  0.00000000E+00
  0.00000000E+00  0.00000000E+00  0.00000000E+00
  0.00000000E+00  0.00000000E+00  0.00000000E+00
  0.00000000E+00  0.00000000E+00  0.00000000E+00
  0.00000000E+00  0.00000000E+00  0.00000000E+00
  0.00000000E+00  0.00000000E+00  0.00000000E+00
  0.00000000E+00  0.00000000E+00  0.00000000E+00
  0.00000000E+00  0.00000000E+00  0.00000000E+00
  0.00000000E+00  0.00000000E+00  0.00000000E+00
  0.00000000E+00  0.00000000E+00  0.00000000E+00
  0.00000000E+00  0.00000000E+00  0.00000000E+00
  0.00000000E+00  0.00000000E+00  0.00000000E+00
  0.00000000E+00  0.00000000E+00  0.00000000E+00
  0.00000000E+00  0.00000000E+00  0.00000000E+00
  0.00000000E+00  0.00000000E+00  0.00000000E+00
  0.00000000E+00  0.00000000E+00  0.00000000E+00
  0.00000000E+00  0.00000000E+00  0.00000000E+00
  0.00000000E+00  0.00000000E+00  0.00000000E+00
  0.00000000E+00  0.00000000E+00  0.00000000E+00
  0.00000000E+00  0.00000000E+00  0.00000000E+00
  0.00000000E+00  0.00000000E+00  0.00000000E+00
  0.00000000E+00  0.00000000E+00  0.00000000E+00
  0.00000000E+00  0.00000000E+00  0.00000000E+00
  0.00000000E+00  0.00000000E+00  0.00000000E+00
  0.00000000E+00  0.00000000E+00  0.00000000E+00
  0.00000000E+00  0.00000000E+00  0.00000000E+00
  0.00000000E+00  0.00000000E+00  0.00000000E+00
  0.00000000E+00  0.00000000E+00  0.00000000E+00
  0.00000000E+00  0.00000000E+00  0.00000000E+00
  0.00000000E+00  0.00000000E+00  0.00000000E+00
  0.00000000E+00  0.00000000E+00  0.00000000E+00
  0.00000000E+00  0.00000000E+00  0.00000000E+00
  0.00000000E+00  0.00000000E+00  0.00000000E+00
  0.00000000E+00  0.00000000E+00  0.00000000E+00
  0.00000000E+00  0.00000000E+00  0.00000000E+00
  0.00000000E+00  0.00000000E+00  0.00000000E+00
  0.00000000E+00  0.00000000E+00  0.00000000E+00
  0.00000000E+00  0.00000000E+00  0.00000000E+00
  0.00000000E+00  0.00000000E+00  0.00000000E+00
  0.00000000E+00  0.00000000E+00  0.00000000E+00
  0.00000000E+00  0.00000000E+00  0.00000000E+00
  0.00000000E+00  0.00000000E+00  0.00000000E+00
  0.00000000E+00  0.00000000E+00  0.00000000E+00
  0.00000000E+00  0.00000000E+00  0.00000000E+00
  0.00000000E+00  0.00000000E+00  0.00000000E+00
  0.00000000E+00  0.00000000E+00  0.00000000E+00
  0.00000000E+00  0.00000000E+00  0.00000000E+00
  0.00000000E+00  0.00000000E+00  0.00000000E+00
  0.00000000E+00  0.00000000E+00  0.00000000E+00
  0.00000000E+00  0.00000000E+00  0.00000000E+00
  0.00000000E+00  0.00000000E+00  0.00000000E+00
  0.00000000E+00  0.00000000E+00  0.00000000E+00
  0.00000000E+00  0.00000000E+00  0.00000000E+00
  0.00000000E+00  0.00000000E+00  0.00000000E+00
  0.00000000E+00  0.00000000E+00  0.00000000E+00
  0.00000000E+00  0.00000000E+00  0.00000000E+00
  0.00000000E+00  0.00000000E+00  0.00000000E+00
  0.00000000E+00  0.00000000E+00  0.00000000E+00
  0.00000000E+00  0.00000000E+00  0.00000000E+00
  0.00000000E+00  0.00000000E+00  0.00000000E+00
  0.00000000E+00  0.00000000E+00  0.00000000E+00
  0.00000000E+00  0.00000000E+00  0.00000000E+00
  0.00000000E+00  0.00000000E+00  0.00000000E+00
  0.00000000E+00  0.00000000E+00  0.00000000E+00
  0.00000000E+00  0.00000000E+00  0.00000000E+00
  0.00000000E+00  0.00000000E+00  0.00000000E+00
  0.00000000E+00  0.00000000E+00  0.00000000E+00
  0.00000000E+00  0.00000000E+00  0.00000000E+00
  0.00000000E+00  0.00000000E+00  0.00000000E+00
  0.00000000E+00  0.00000000E+00  0.00000000E+00
  0.00000000E+00  0.00000000E+00  0.00000000E+00
  0.00000000E+00  0.00000000E+00  0.00000000E+00
  0.00000000E+00  0.00000000E+00  0.00000000E+00
  0.00000000E+00  0.00000000E+00  0.00000000E+00
  0.00000000E+00  0.00000000E+00  0.00000000E+00
