FeH_exp1                                
   1.00000000000000     
    24.2143057605134935   -0.0000882633360359    0.0052255674387920
    -0.0007986000790620   25.5486861763210982    3.8451190210708330
     0.0012729834192411    0.6249955077628027    6.1951244971542332
   C    Fe   H    N    O 
    80     4    32    24    16
Direct
  0.8956772416983654  0.9704540336402729  0.0859798282747448
  0.9326062204195935  0.9837507539778017  0.3966367450273012
  0.8947836508795177  0.8118066288102028  0.9196932798139841
  0.6041627311830524  0.4703196570276944  0.5890842644853791
  0.5685420607132698  0.2974390392483812  0.1144368466906869
  0.0673971173980874  0.7971396895094145  0.1089389143284478
  0.5675365990012793  0.4834941913627091  0.9006034764389810
  0.6051555333409482  0.3113803132493587  0.4245587901920800
  0.4316406931878234  0.4829975952982153  0.4004493113267316
  0.1040135582878392  0.8102489254765857  0.4204471451286409
  0.0684009182019878  0.9832230878851433  0.8961690663815958
  0.4326019795547253  0.2969167227176897  0.6137395119392863
  0.9313200642677444  0.7979117359595875  0.6092537563982603
  0.1051286433064575  0.9694532458491167  0.5858570134407799
  0.3958518928728978  0.3100755545936948  0.9250788207739475
  0.3951234914759070  0.4692938615660296  0.0897606927388779
  0.8181176826858589  0.0349693530516291  0.4408806064164139
  0.8457274414839375  0.0841670323208135  0.0540788972850521
  0.8441988475168429  0.6982782162975312  0.9547116634483430
  0.6540554372815492  0.5840259005971049  0.5552555679860873
  0.6559680432249664  0.1978874448648966  0.4585536694285892
  0.1819364874503151  0.7455994100911312  0.0673843684416582
  0.6818885555324741  0.5351702335914510  0.9421170258781402
  0.6835233600851183  0.2470411137690149  0.0716294686076324
  0.3168279943688859  0.5339529819005833  0.4421285149573606
  0.1539538056028391  0.6966145980977743  0.4539850797902645
  0.1557886317484360  0.0829835347362433  0.5526379610760017
  0.3457291927959716  0.1964282793198464  0.9569322199726003
  0.8162310668078447  0.7472589083243761  0.5681101274498204
  0.1833501036812919  0.0336998757294182  0.9393772767519124
  0.3180518547464146  0.2457804367709002  0.5705720098889913
  0.3445751762246942  0.5827654967966751  0.0549319468887717
  0.7762142891364618  0.0766459548495391  0.4397615402028023
  0.8047948952088930  0.1259606068156813  0.0647157297221810
  0.8030742719986321  0.6565377861388981  0.9456878662664181
  0.6949900918519845  0.6259065578432086  0.5646680907884516
  0.6969998339372268  0.1561689429007771  0.4482024656807724
  0.2239104532621354  0.7039167560937543  0.0697425974594381
  0.7237867537641236  0.5769234843889777  0.9397476411676919
  0.7255571000314802  0.2054670594551382  0.0730781897442938
  0.2746576447000493  0.5754858025754856  0.4393339396329523
  0.1950701276164466  0.6548821765144055  0.4448370834542601
  0.1968244083361199  0.1246880003304227  0.5631839823248583
  0.3046751767049329  0.1547297374044447  0.9464964300757046
  0.7742452499262029  0.7055657666193582  0.5707099700266411
  0.2253444911011115  0.0752995204307112  0.9381397613651075
  0.2761033936209714  0.2041455922552018  0.5717021174239321
  0.3034110644790573  0.6244617225706932  0.0640341309801826
  0.7418505833437194  0.0722999738773851  0.6230266678927165
  0.7993621052244677  0.1703938518153834  0.8859185712108300
  0.7976577317375444  0.6122917878883385  0.1253349936102168
  0.7003590941750488  0.6701988352377342  0.3851876731145012
  0.7025258849702354  0.1117995137622572  0.6272190955325101
  0.2584741389007945  0.7081426380737881  0.8871393034913311
  0.7582855668947275  0.5727503193177910  0.1224015297490055
  0.7600140563364874  0.2098790326615259  0.8900373997934068
  0.2400557600942008  0.5712255105808026  0.6218351423242297
  0.2005299744194602  0.6106562047801773  0.6245082470020051
  0.2023481136778500  0.1691092818914441  0.3843645764027599
  0.2991256183617850  0.1103285126587537  0.1253690165600219
  0.7397031924423558  0.7097666934123765  0.3881871384134072
  0.2597349125927195  0.0708788459543683  0.1212343993117599
  0.2417030316852973  0.2085814735919982  0.3886008079897607
  0.2979310605659933  0.6686656065821097  0.8842855312727167
  0.8903504302478353  0.0009872295561948  0.2420920570160945
  0.8890460496503181  0.7811318763344204  0.7643512437086812
  0.6095706805245129  0.5008880237770938  0.7450062580473613
  0.6108432472453558  0.2806776943277214  0.2692585901504287
  0.1094333472368376  0.7797225406933279  0.2643684157810853
  0.3894619404885376  0.4999540530786675  0.2452390486321434
  0.1107295674646522  0.0000894614463220  0.7414346126182210
  0.3904516395436275  0.2795872257742857  0.7688715213497943
  0.7709409448106825  0.1209336559539693  0.2543432947290967
  0.7690807683159591  0.6613947107082936  0.7566806957395826
  0.7289503925980441  0.6210849122486053  0.7537450133578147
  0.7308279296890632  0.1611797075211783  0.2584945818975655
  0.2291196665170290  0.6597879433347771  0.2558320023444765
  0.2693924612843119  0.6195818296379088  0.2531176015615557
  0.2306531269107381  0.1196104009433014  0.7528086674115997
  0.2708134059996752  0.1598200857369747  0.7569678430190123
  0.9848433385169741  0.8906442161389165  0.0025033325962696
  0.0151788461239377  0.8903945984596717  0.5027139661277431
  0.5151325386376016  0.3903403756476109  0.5071902595435134
  0.4849362489496301  0.3900235032910970  0.0075357214981793
  0.3257895686171892  0.1074377757750966  0.2688031465989624
  0.7535684891165388  0.5382308746143565  0.2628304157171470
  0.7552693418291909  0.2445184802667129  0.7501903282907421
  0.7466550660467774  0.0376938954285748  0.7629927788004807
  0.7443669700113631  0.7443096281229558  0.2478279313781258
  0.6736220789456411  0.6728910230346870  0.2420874849943147
  0.1737090929101441  0.6079029845876107  0.7674907984560662
  0.1756959749666223  0.1719888307006130  0.2409124174495361
  0.8244063217260518  0.6095960227633981  0.2683958240995281
  0.2464692013185612  0.2432467514069359  0.2488507466105006
  0.2448336988026227  0.5367618218932364  0.7624262658406806
  0.2537492257945928  0.7426349963594987  0.7466504473261040
  0.3247029135461261  0.6713797520454534  0.7411960612091946
  0.6759120272430437  0.1089702861016733  0.7708367011785668
  0.8260507756319200  0.1732499111146595  0.7424931724198274
  0.2549255087780509  0.0362531064137954  0.2611286586498380
  0.5571110881221841  0.4965137320891202  0.0484386919446678
  0.4430617853613086  0.2839226375687218  0.4658593047480082
  0.3713928575049863  0.4703197260309224  0.9405962131604824
  0.1277646326287183  0.8089249565312926  0.5698232761219231
  0.0579997494526054  0.9964651789091477  0.0435201901615230
  0.3720433487846080  0.3087969079177952  0.0743407922722881
  0.8717939568054760  0.9716669677289005  0.9370035179245093
  0.9416253636012684  0.7846041049901160  0.4619657319172390
  0.1289868401217902  0.9704159325358859  0.4369886350222032
  0.6279098624121247  0.4716052679575213  0.4396582321497462
  0.5582184106010644  0.2841133020586994  0.9672495154996028
  0.9431343069231133  0.9968066502575397  0.5442424088629352
  0.6289757805755514  0.3105092157711340  0.5733809501445037
  0.4419483032604319  0.4962433349505204  0.5478485237036139
  0.0569594100673996  0.7841371481777344  0.9610926140627356
  0.8710001848826963  0.8109106872609502  0.0686662357814427
  0.9386372860168350  0.9366904668472316  0.1459863174045566
  0.9614099750134812  0.9450145047126099  0.3363629542512072
  0.9379997609070898  0.8452071878054639  0.8588384519571903
  0.5613716986464183  0.4363906984468500  0.6501437367434875
  0.5393625121499994  0.3360710298880107  0.1738305018032520
  0.0386321794191460  0.8359686863808165  0.1687572555807932
  0.5387832476064887  0.4446338393770120  0.8410369095177046
  0.5619476211513614  0.3447902555179709  0.3638486931887712
  0.4607162315569653  0.4442959426790125  0.3410995458122343
  0.0612236347477548  0.8441756077882800  0.3596507614032305
  0.0392888796984536  0.9446030015503410  0.8364498000066902
  0.4614020474099689  0.3356809369949616  0.6737729103373198
  0.9605356536734959  0.8365229647918966  0.6686075725561267
  0.0619357910362481  0.9359840459141182  0.6462794430710588
  0.4387388246200246  0.3439163308976561  0.8645553743760317
  0.4381948894784173  0.4357199450916198  0.1507274440995587
  0.8502779029104275  0.0410090931119953  0.2455685654011290
  0.8487054788975570  0.7412500135631035  0.7624843948770632
  0.6495685034951464  0.5410356368312534  0.7474139562531903
  0.6512294632211280  0.2408886606164771  0.2666086370561800
  0.1494752918428901  0.7396108784512663  0.2618788376167274
  0.3491867520419518  0.5398753651398920  0.2473664652108525
  0.1510627498884816  0.0399109285204631  0.7443812862327945
  0.3503354963789249  0.2395948805812509  0.7655196956666899
  0.8251545016227126  0.9965170803643773  0.6004431738268181
  0.8746464079480347  0.0858612507050935  0.8900940902018704
  0.8733352990230685  0.6966831966467808  0.1179253223403194
  0.6250825001267302  0.5855144416462466  0.3916938338163689
  0.6270651944696937  0.1962564537438141  0.6225279331724849
  0.1751068045868536  0.7840344519131293  0.9075807713456214
  0.6750045488928293  0.4967913806040940  0.1021418891051553
  0.6764790293516327  0.2854822628537192  0.9120370072880988
  0.3239119404982134  0.4957158258157079  0.6025083907473103
  0.1248432446820331  0.6950226301779381  0.6173596271973381
  0.1269071856882036  0.0846883935239262  0.3886385529315675
  0.3747031927774245  0.1946701054760425  0.1207190522798598
  0.8231026072887317  0.7856619389782509  0.4081871406349933
  0.1763329213110723  0.9951735060234697  0.0986672042879064
  0.3250210813138921  0.2843224860026581  0.4112968429046973
  0.3736481959968572  0.5843337062486995  0.8914598084399827
 
  0.00000000E+00  0.00000000E+00  0.00000000E+00
  0.00000000E+00  0.00000000E+00  0.00000000E+00
  0.00000000E+00  0.00000000E+00  0.00000000E+00
  0.00000000E+00  0.00000000E+00  0.00000000E+00
  0.00000000E+00  0.00000000E+00  0.00000000E+00
  0.00000000E+00  0.00000000E+00  0.00000000E+00
  0.00000000E+00  0.00000000E+00  0.00000000E+00
  0.00000000E+00  0.00000000E+00  0.00000000E+00
  0.00000000E+00  0.00000000E+00  0.00000000E+00
  0.00000000E+00  0.00000000E+00  0.00000000E+00
  0.00000000E+00  0.00000000E+00  0.00000000E+00
  0.00000000E+00  0.00000000E+00  0.00000000E+00
  0.00000000E+00  0.00000000E+00  0.00000000E+00
  0.00000000E+00  0.00000000E+00  0.00000000E+00
  0.00000000E+00  0.00000000E+00  0.00000000E+00
  0.00000000E+00  0.00000000E+00  0.00000000E+00
  0.00000000E+00  0.00000000E+00  0.00000000E+00
  0.00000000E+00  0.00000000E+00  0.00000000E+00
  0.00000000E+00  0.00000000E+00  0.00000000E+00
  0.00000000E+00  0.00000000E+00  0.00000000E+00
  0.00000000E+00  0.00000000E+00  0.00000000E+00
  0.00000000E+00  0.00000000E+00  0.00000000E+00
  0.00000000E+00  0.00000000E+00  0.00000000E+00
  0.00000000E+00  0.00000000E+00  0.00000000E+00
  0.00000000E+00  0.00000000E+00  0.00000000E+00
  0.00000000E+00  0.00000000E+00  0.00000000E+00
  0.00000000E+00  0.00000000E+00  0.00000000E+00
  0.00000000E+00  0.00000000E+00  0.00000000E+00
  0.00000000E+00  0.00000000E+00  0.00000000E+00
  0.00000000E+00  0.00000000E+00  0.00000000E+00
  0.00000000E+00  0.00000000E+00  0.00000000E+00
  0.00000000E+00  0.00000000E+00  0.00000000E+00
  0.00000000E+00  0.00000000E+00  0.00000000E+00
  0.00000000E+00  0.00000000E+00  0.00000000E+00
  0.00000000E+00  0.00000000E+00  0.00000000E+00
  0.00000000E+00  0.00000000E+00  0.00000000E+00
  0.00000000E+00  0.00000000E+00  0.00000000E+00
  0.00000000E+00  0.00000000E+00  0.00000000E+00
  0.00000000E+00  0.00000000E+00  0.00000000E+00
  0.00000000E+00  0.00000000E+00  0.00000000E+00
  0.00000000E+00  0.00000000E+00  0.00000000E+00
  0.00000000E+00  0.00000000E+00  0.00000000E+00
  0.00000000E+00  0.00000000E+00  0.00000000E+00
  0.00000000E+00  0.00000000E+00  0.00000000E+00
  0.00000000E+00  0.00000000E+00  0.00000000E+00
  0.00000000E+00  0.00000000E+00  0.00000000E+00
  0.00000000E+00  0.00000000E+00  0.00000000E+00
  0.00000000E+00  0.00000000E+00  0.00000000E+00
  0.00000000E+00  0.00000000E+00  0.00000000E+00
  0.00000000E+00  0.00000000E+00  0.00000000E+00
  0.00000000E+00  0.00000000E+00  0.00000000E+00
  0.00000000E+00  0.00000000E+00  0.00000000E+00
  0.00000000E+00  0.00000000E+00  0.00000000E+00
  0.00000000E+00  0.00000000E+00  0.00000000E+00
  0.00000000E+00  0.00000000E+00  0.00000000E+00
  0.00000000E+00  0.00000000E+00  0.00000000E+00
  0.00000000E+00  0.00000000E+00  0.00000000E+00
  0.00000000E+00  0.00000000E+00  0.00000000E+00
  0.00000000E+00  0.00000000E+00  0.00000000E+00
  0.00000000E+00  0.00000000E+00  0.00000000E+00
  0.00000000E+00  0.00000000E+00  0.00000000E+00
  0.00000000E+00  0.00000000E+00  0.00000000E+00
  0.00000000E+00  0.00000000E+00  0.00000000E+00
  0.00000000E+00  0.00000000E+00  0.00000000E+00
  0.00000000E+00  0.00000000E+00  0.00000000E+00
  0.00000000E+00  0.00000000E+00  0.00000000E+00
  0.00000000E+00  0.00000000E+00  0.00000000E+00
  0.00000000E+00  0.00000000E+00  0.00000000E+00
  0.00000000E+00  0.00000000E+00  0.00000000E+00
  0.00000000E+00  0.00000000E+00  0.00000000E+00
  0.00000000E+00  0.00000000E+00  0.00000000E+00
  0.00000000E+00  0.00000000E+00  0.00000000E+00
  0.00000000E+00  0.00000000E+00  0.00000000E+00
  0.00000000E+00  0.00000000E+00  0.00000000E+00
  0.00000000E+00  0.00000000E+00  0.00000000E+00
  0.00000000E+00  0.00000000E+00  0.00000000E+00
  0.00000000E+00  0.00000000E+00  0.00000000E+00
  0.00000000E+00  0.00000000E+00  0.00000000E+00
  0.00000000E+00  0.00000000E+00  0.00000000E+00
  0.00000000E+00  0.00000000E+00  0.00000000E+00
  0.00000000E+00  0.00000000E+00  0.00000000E+00
  0.00000000E+00  0.00000000E+00  0.00000000E+00
  0.00000000E+00  0.00000000E+00  0.00000000E+00
  0.00000000E+00  0.00000000E+00  0.00000000E+00
  0.00000000E+00  0.00000000E+00  0.00000000E+00
  0.00000000E+00  0.00000000E+00  0.00000000E+00
  0.00000000E+00  0.00000000E+00  0.00000000E+00
  0.00000000E+00  0.00000000E+00  0.00000000E+00
  0.00000000E+00  0.00000000E+00  0.00000000E+00
  0.00000000E+00  0.00000000E+00  0.00000000E+00
  0.00000000E+00  0.00000000E+00  0.00000000E+00
  0.00000000E+00  0.00000000E+00  0.00000000E+00
  0.00000000E+00  0.00000000E+00  0.00000000E+00
  0.00000000E+00  0.00000000E+00  0.00000000E+00
  0.00000000E+00  0.00000000E+00  0.00000000E+00
  0.00000000E+00  0.00000000E+00  0.00000000E+00
  0.00000000E+00  0.00000000E+00  0.00000000E+00
  0.00000000E+00  0.00000000E+00  0.00000000E+00
  0.00000000E+00  0.00000000E+00  0.00000000E+00
  0.00000000E+00  0.00000000E+00  0.00000000E+00
  0.00000000E+00  0.00000000E+00  0.00000000E+00
  0.00000000E+00  0.00000000E+00  0.00000000E+00
  0.00000000E+00  0.00000000E+00  0.00000000E+00
  0.00000000E+00  0.00000000E+00  0.00000000E+00
  0.00000000E+00  0.00000000E+00  0.00000000E+00
  0.00000000E+00  0.00000000E+00  0.00000000E+00
  0.00000000E+00  0.00000000E+00  0.00000000E+00
  0.00000000E+00  0.00000000E+00  0.00000000E+00
  0.00000000E+00  0.00000000E+00  0.00000000E+00
  0.00000000E+00  0.00000000E+00  0.00000000E+00
  0.00000000E+00  0.00000000E+00  0.00000000E+00
  0.00000000E+00  0.00000000E+00  0.00000000E+00
  0.00000000E+00  0.00000000E+00  0.00000000E+00
  0.00000000E+00  0.00000000E+00  0.00000000E+00
  0.00000000E+00  0.00000000E+00  0.00000000E+00
  0.00000000E+00  0.00000000E+00  0.00000000E+00
  0.00000000E+00  0.00000000E+00  0.00000000E+00
  0.00000000E+00  0.00000000E+00  0.00000000E+00
  0.00000000E+00  0.00000000E+00  0.00000000E+00
  0.00000000E+00  0.00000000E+00  0.00000000E+00
  0.00000000E+00  0.00000000E+00  0.00000000E+00
  0.00000000E+00  0.00000000E+00  0.00000000E+00
  0.00000000E+00  0.00000000E+00  0.00000000E+00
  0.00000000E+00  0.00000000E+00  0.00000000E+00
  0.00000000E+00  0.00000000E+00  0.00000000E+00
  0.00000000E+00  0.00000000E+00  0.00000000E+00
  0.00000000E+00  0.00000000E+00  0.00000000E+00
  0.00000000E+00  0.00000000E+00  0.00000000E+00
  0.00000000E+00  0.00000000E+00  0.00000000E+00
  0.00000000E+00  0.00000000E+00  0.00000000E+00
  0.00000000E+00  0.00000000E+00  0.00000000E+00
  0.00000000E+00  0.00000000E+00  0.00000000E+00
  0.00000000E+00  0.00000000E+00  0.00000000E+00
  0.00000000E+00  0.00000000E+00  0.00000000E+00
  0.00000000E+00  0.00000000E+00  0.00000000E+00
  0.00000000E+00  0.00000000E+00  0.00000000E+00
  0.00000000E+00  0.00000000E+00  0.00000000E+00
  0.00000000E+00  0.00000000E+00  0.00000000E+00
  0.00000000E+00  0.00000000E+00  0.00000000E+00
  0.00000000E+00  0.00000000E+00  0.00000000E+00
  0.00000000E+00  0.00000000E+00  0.00000000E+00
  0.00000000E+00  0.00000000E+00  0.00000000E+00
  0.00000000E+00  0.00000000E+00  0.00000000E+00
  0.00000000E+00  0.00000000E+00  0.00000000E+00
  0.00000000E+00  0.00000000E+00  0.00000000E+00
  0.00000000E+00  0.00000000E+00  0.00000000E+00
  0.00000000E+00  0.00000000E+00  0.00000000E+00
  0.00000000E+00  0.00000000E+00  0.00000000E+00
  0.00000000E+00  0.00000000E+00  0.00000000E+00
  0.00000000E+00  0.00000000E+00  0.00000000E+00
  0.00000000E+00  0.00000000E+00  0.00000000E+00
  0.00000000E+00  0.00000000E+00  0.00000000E+00
  0.00000000E+00  0.00000000E+00  0.00000000E+00
  0.00000000E+00  0.00000000E+00  0.00000000E+00
  0.00000000E+00  0.00000000E+00  0.00000000E+00
  0.00000000E+00  0.00000000E+00  0.00000000E+00
