Zn_H                                    
   1.00000000000000     
    24.9618196292722239   -0.0014106491969948    0.0002113488722022
     0.0014298417756996   24.2810506097645593   -3.6246757523095363
     0.0010875915169143   -0.1519501257807503    7.4465523196618717
   C    Zn   H    N    O 
    80     4    32    24    16
Direct
  0.9280996408197026  0.9657503355881616  0.1434686833754313
  0.9073700587476878  0.9579604133034536  0.4282960898901180
  0.9278080764654248  0.7900097917378375  0.9004511729660010
  0.5716374327888190  0.4657895480702763  0.6445531951894452
  0.5925357366927315  0.2978061505088192  0.1165550307624770
  0.0924782370780264  0.7976188080450726  0.1155550399613006
  0.5924346663885132  0.4579797092357722  0.9292980191054312
  0.5719388810451633  0.2900629024542667  0.4015212836674920
  0.4072999519984748  0.4579697220928693  0.4294224874901573
  0.0718124301336118  0.7899659870392810  0.4005456446730733
  0.0924615733177134  0.9578161676886054  0.9282940806124245
  0.4072712214272372  0.2977405509167923  0.6166447858552786
  0.9071643106728189  0.7977593203911653  0.6155469384377241
  0.0717467395606022  0.9656996487503733  0.6435548047863691
  0.4278493860646080  0.2900506861844718  0.9016410557895256
  0.4280739128139359  0.4657845691475160  0.1446514490846411
  0.8230802185459893  0.0256373597959723  0.1186858363286163
  0.8413742082889613  0.0643851564020324  0.4463289416922080
  0.8409357773833293  0.6914891559143115  0.5980023585845728
  0.6584807988528922  0.5643847757160003  0.9468802847626208
  0.6587711174733997  0.1915570333827503  0.0985872830372045
  0.1768836592621668  0.7302134920333359  0.4258599483829855
  0.6766533053965915  0.5256070944653786  0.6191737194444755
  0.6770925779637693  0.2303469212711775  0.4262038812465931
  0.3230121164610367  0.5255183972939577  0.1194081732359322
  0.1587416726359479  0.6914062495916298  0.0981496084886970
  0.1585159152156521  0.0642210125331601  0.9464479301479756
  0.3411097965444938  0.1914634278157408  0.5987321828501635
  0.8226567377695915  0.7303659888453495  0.9256013630454234
  0.1768359647470064  0.0254883296435082  0.6187856183208709
  0.3227286558835871  0.2302562800409618  0.9263234346793041
  0.3412208655490332  0.5643749128001687  0.4470320797755463
  0.7810061535243875  0.0683445007204000  0.1173609248004865
  0.7993185622692138  0.1067446913776422  0.4375112006649431
  0.7988550288652903  0.6491751809821054  0.6070734534414441
  0.7005109193908510  0.6067451524194851  0.9377501686740715
  0.7008589017003857  0.1492301740128568  0.1073973198792899
  0.2189718936650706  0.6875298401821013  0.4274724688918425
  0.7187251572790103  0.5683055089429487  0.6175421014528055
  0.7191538843075378  0.1876214529564706  0.4275591803030565
  0.2809545183936564  0.5682272364358383  0.1177603194034802
  0.2008172154466976  0.6490887068086622  0.1072616355412706
  0.2005862851047766  0.1065656905860166  0.9376588420993031
  0.2990441436207263  0.1491136356084652  0.6075411019011270
  0.7806302442175692  0.6876261856638024  0.9272702909736807
  0.2189111103153749  0.0682026298883471  0.6174699052613022
  0.2807132222660513  0.1874844452178124  0.9277242910833863
  0.2991533649302269  0.6067021111526714  0.4379408725119376
  0.7519232135748197  0.0698678599845977  0.9589844578712885
  0.7881707852272370  0.1459465848262482  0.5907016543698873
  0.7876967452271870  0.6099359213481037  0.4540001722710443
  0.7116885820539665  0.6459703209181313  0.0908384705659842
  0.7119818762870409  0.1100122338345813  0.9542192658804467
  0.2479720759758735  0.6860303206551777  0.5860233599130567
  0.7477517027978493  0.5698068563168022  0.4590056461394809
  0.7482177718584282  0.1860805546641160  0.5859546423547357
  0.2519313992573089  0.5697147863797127  0.9592383114262901
  0.2119910748336196  0.6098415236770904  0.9542129547490532
  0.2117091862352183  0.1457644137653062  0.0908766165622055
  0.2879379642036213  0.1098988787115474  0.4543521364910461
  0.7516196034924363  0.6861101229825266  0.0858184436375424
  0.2479997506624869  0.0697515429070421  0.4590889400570575
  0.2516400574512332  0.1859195124974278  0.0861199735774676
  0.2879400988316476  0.6459244422033734  0.5910177738152456
  0.8931113383968921  0.9862587963454814  0.2864799657624957
  0.8927775965454430  0.7695735738713907  0.7575374481050474
  0.6066729095783359  0.4862727206076514  0.7874121857396119
  0.6069370147981346  0.2696104759530371  0.2584867553062011
  0.1068370112561610  0.7694633950821697  0.2576446095550224
  0.3930423653259894  0.4862562531179293  0.2875575386382536
  0.1067532868860326  0.9861379775114969  0.7865456551369618
  0.3928730080899783  0.2695572629860123  0.7586169249970851
  0.7702830155247327  0.1075955853433967  0.2749703551877190
  0.7698643087001429  0.6483576655300496  0.7697518404273183
  0.7294914541608932  0.6075722183657746  0.7750584203753235
  0.7298938968008670  0.1483796612863628  0.2699366970641250
  0.2297917000347738  0.6482798781711452  0.2699483299437659
  0.2701793978075671  0.6075088997851381  0.2752455989242080
  0.2296293372452212  0.1074380873294629  0.7751135861914520
  0.2700022390442740  0.1482417793213315  0.7700889900773333
  0.0090695721264709  0.8777138325984168  0.0217875591168664
  0.9906550627937563  0.8777620295862789  0.5218163996106782
  0.4906592642133418  0.3777970314708199  0.5229513975024034
  0.5090780984905052  0.3778283476119810  0.0230477246224581
  0.3107779236827994  0.1111381515273209  0.3304129355046470
  0.7384947830633806  0.5393611343663025  0.3389207318714753
  0.7389923781524601  0.2165142198637611  0.7061165809718446
  0.7611326019552891  0.0394300026371326  0.8388186881197157
  0.7608690699343086  0.7165659407993914  0.2058887851719220
  0.6889127895406304  0.6447575132685088  0.2149100321840010
  0.1892002627184297  0.6110330136029987  0.8301659655400400
  0.1888822713837754  0.1445227085310847  0.2148319969805570
  0.8104920988523787  0.6111366199407584  0.3299548693612664
  0.2608390391861164  0.2163596699240955  0.2062871105275690
  0.2611772165162023  0.5392476453740542  0.8391808911000993
  0.2386802963940582  0.7164637102691884  0.7061186093619369
  0.3107197748094066  0.6447303502921997  0.7150767390400716
  0.6891454849321335  0.1112386058144565  0.8302867510471827
  0.8109893079869082  0.1447164996539385  0.7146592424293843
  0.2387986841403418  0.0393182966385268  0.3389097113985002
  0.6085720364839631  0.4615697944952473  0.0658836114902641
  0.3912072436188154  0.2941233298030781  0.4799593858086055
  0.4308210426104893  0.4758073482958736  0.0087729676110371
  0.0691261460951225  0.7800401048252823  0.5365667748485450
  0.1085676022043458  0.9613606239677850  0.0649079551500193
  0.4304820869995609  0.2801150003178350  0.0376530941139848
  0.9308207422402788  0.9757607070080709  0.0075625814405598
  0.8910681323442091  0.7941698170013467  0.4789117639647245
  0.0690333915495955  0.9757487008392971  0.5077020642408172
  0.5688745679384652  0.4758141198432924  0.5086837421162329
  0.6086138420376486  0.2942210374876666  0.9798827409523341
  0.8912592772882704  0.9615505637063109  0.5649310889623465
  0.5692927237728895  0.2800975134449573  0.5375003136844825
  0.3911656742100149  0.4615471383756926  0.5660221404745656
  0.1085851542997815  0.7939855612404543  0.9789074589996360
  0.9304737406353212  0.7800509224067156  0.0364280468128015
  0.9607647833950992  0.9278640456412859  0.1963627604850373
  0.9479162079554087  0.9228905849831222  0.3720486331502073
  0.9606100450337394  0.8277533849593226  0.8473620459363431
  0.5389719514436706  0.4279223557695531  0.6975672350790063
  0.5519017649820768  0.3327635622789700  0.1727687265642146
  0.0518470946772567  0.8326036329245241  0.1715758359730515
  0.5518564218341382  0.4229365576611883  0.8732055713197795
  0.5391387914325847  0.3278233390872245  0.3485470666068906
  0.4478804765653734  0.4229336143182678  0.3732640973426058
  0.0390449088318618  0.8277145762573213  0.3473657311855618
  0.0518814066378397  0.9227990153569152  0.8720185127203166
  0.4478761010237946  0.3327323017432775  0.6728159228582129
  0.9478199106569036  0.8326999605376031  0.6716225014418455
  0.0390415837366618  0.9278289828443391  0.6963833114386091
  0.4606290383536447  0.3278255604338369  0.8486192517038802
  0.4607540370638148  0.4279262850116510  0.1976153776335536
  0.8519263073290446  0.0264640444868149  0.2841016816981465
  0.8515260623382872  0.7294429216214056  0.7601202810665697
  0.6478632204153740  0.5264589305443650  0.7847585989949479
  0.6481901897341444  0.2294649514107263  0.2608395133223667
  0.1480785720482061  0.7293237938377644  0.2603020563742788
  0.3518272978911980  0.5264198657068420  0.2849429429560359
  0.1479683044639586  0.0263172747912321  0.7842026859075020
  0.3516548680441645  0.2293784529690157  0.7609837858933304
  0.8328259328250951  0.9910987380190619  0.9833855312194615
  0.8659705981839707  0.0619411898764000  0.5876820509536600
  0.8655279008808776  0.6938779483652482  0.4565551009662343
  0.6339663103400355  0.5619336332395051  0.0884190400662987
  0.6341716009887222  0.1939810114860663  0.9572223560389332
  0.1671055725847239  0.7648045622889370  0.5610301987621540
  0.6668612586251470  0.4910550221443017  0.4839792309351623
  0.6674082984685867  0.2649614740700272  0.5613985021032022
  0.3327776066580910  0.4909190689795437  0.9842846062448203
  0.1342229594081488  0.6938251239082689  0.9566275356101386
  0.1339019197266893  0.0617778900821691  0.0877906518022584
  0.3657187687406918  0.1939055422097198  0.4573700929384614
  0.8323416503146746  0.7650263793357084  0.0606676553526313
  0.1671040265512147  0.9909503232569463  0.4834968744517028
  0.3323504927805914  0.2649106580603373  0.0614637279347292
  0.3657853961702529  0.5619801495471251  0.5884887211621219
 
  0.00000000E+00  0.00000000E+00  0.00000000E+00
  0.00000000E+00  0.00000000E+00  0.00000000E+00
  0.00000000E+00  0.00000000E+00  0.00000000E+00
  0.00000000E+00  0.00000000E+00  0.00000000E+00
  0.00000000E+00  0.00000000E+00  0.00000000E+00
  0.00000000E+00  0.00000000E+00  0.00000000E+00
  0.00000000E+00  0.00000000E+00  0.00000000E+00
  0.00000000E+00  0.00000000E+00  0.00000000E+00
  0.00000000E+00  0.00000000E+00  0.00000000E+00
  0.00000000E+00  0.00000000E+00  0.00000000E+00
  0.00000000E+00  0.00000000E+00  0.00000000E+00
  0.00000000E+00  0.00000000E+00  0.00000000E+00
  0.00000000E+00  0.00000000E+00  0.00000000E+00
  0.00000000E+00  0.00000000E+00  0.00000000E+00
  0.00000000E+00  0.00000000E+00  0.00000000E+00
  0.00000000E+00  0.00000000E+00  0.00000000E+00
  0.00000000E+00  0.00000000E+00  0.00000000E+00
  0.00000000E+00  0.00000000E+00  0.00000000E+00
  0.00000000E+00  0.00000000E+00  0.00000000E+00
  0.00000000E+00  0.00000000E+00  0.00000000E+00
  0.00000000E+00  0.00000000E+00  0.00000000E+00
  0.00000000E+00  0.00000000E+00  0.00000000E+00
  0.00000000E+00  0.00000000E+00  0.00000000E+00
  0.00000000E+00  0.00000000E+00  0.00000000E+00
  0.00000000E+00  0.00000000E+00  0.00000000E+00
  0.00000000E+00  0.00000000E+00  0.00000000E+00
  0.00000000E+00  0.00000000E+00  0.00000000E+00
  0.00000000E+00  0.00000000E+00  0.00000000E+00
  0.00000000E+00  0.00000000E+00  0.00000000E+00
  0.00000000E+00  0.00000000E+00  0.00000000E+00
  0.00000000E+00  0.00000000E+00  0.00000000E+00
  0.00000000E+00  0.00000000E+00  0.00000000E+00
  0.00000000E+00  0.00000000E+00  0.00000000E+00
  0.00000000E+00  0.00000000E+00  0.00000000E+00
  0.00000000E+00  0.00000000E+00  0.00000000E+00
  0.00000000E+00  0.00000000E+00  0.00000000E+00
  0.00000000E+00  0.00000000E+00  0.00000000E+00
  0.00000000E+00  0.00000000E+00  0.00000000E+00
  0.00000000E+00  0.00000000E+00  0.00000000E+00
  0.00000000E+00  0.00000000E+00  0.00000000E+00
  0.00000000E+00  0.00000000E+00  0.00000000E+00
  0.00000000E+00  0.00000000E+00  0.00000000E+00
  0.00000000E+00  0.00000000E+00  0.00000000E+00
  0.00000000E+00  0.00000000E+00  0.00000000E+00
  0.00000000E+00  0.00000000E+00  0.00000000E+00
  0.00000000E+00  0.00000000E+00  0.00000000E+00
  0.00000000E+00  0.00000000E+00  0.00000000E+00
  0.00000000E+00  0.00000000E+00  0.00000000E+00
  0.00000000E+00  0.00000000E+00  0.00000000E+00
  0.00000000E+00  0.00000000E+00  0.00000000E+00
  0.00000000E+00  0.00000000E+00  0.00000000E+00
  0.00000000E+00  0.00000000E+00  0.00000000E+00
  0.00000000E+00  0.00000000E+00  0.00000000E+00
  0.00000000E+00  0.00000000E+00  0.00000000E+00
  0.00000000E+00  0.00000000E+00  0.00000000E+00
  0.00000000E+00  0.00000000E+00  0.00000000E+00
  0.00000000E+00  0.00000000E+00  0.00000000E+00
  0.00000000E+00  0.00000000E+00  0.00000000E+00
  0.00000000E+00  0.00000000E+00  0.00000000E+00
  0.00000000E+00  0.00000000E+00  0.00000000E+00
  0.00000000E+00  0.00000000E+00  0.00000000E+00
  0.00000000E+00  0.00000000E+00  0.00000000E+00
  0.00000000E+00  0.00000000E+00  0.00000000E+00
  0.00000000E+00  0.00000000E+00  0.00000000E+00
  0.00000000E+00  0.00000000E+00  0.00000000E+00
  0.00000000E+00  0.00000000E+00  0.00000000E+00
  0.00000000E+00  0.00000000E+00  0.00000000E+00
  0.00000000E+00  0.00000000E+00  0.00000000E+00
  0.00000000E+00  0.00000000E+00  0.00000000E+00
  0.00000000E+00  0.00000000E+00  0.00000000E+00
  0.00000000E+00  0.00000000E+00  0.00000000E+00
  0.00000000E+00  0.00000000E+00  0.00000000E+00
  0.00000000E+00  0.00000000E+00  0.00000000E+00
  0.00000000E+00  0.00000000E+00  0.00000000E+00
  0.00000000E+00  0.00000000E+00  0.00000000E+00
  0.00000000E+00  0.00000000E+00  0.00000000E+00
  0.00000000E+00  0.00000000E+00  0.00000000E+00
  0.00000000E+00  0.00000000E+00  0.00000000E+00
  0.00000000E+00  0.00000000E+00  0.00000000E+00
  0.00000000E+00  0.00000000E+00  0.00000000E+00
  0.00000000E+00  0.00000000E+00  0.00000000E+00
  0.00000000E+00  0.00000000E+00  0.00000000E+00
  0.00000000E+00  0.00000000E+00  0.00000000E+00
  0.00000000E+00  0.00000000E+00  0.00000000E+00
  0.00000000E+00  0.00000000E+00  0.00000000E+00
  0.00000000E+00  0.00000000E+00  0.00000000E+00
  0.00000000E+00  0.00000000E+00  0.00000000E+00
  0.00000000E+00  0.00000000E+00  0.00000000E+00
  0.00000000E+00  0.00000000E+00  0.00000000E+00
  0.00000000E+00  0.00000000E+00  0.00000000E+00
  0.00000000E+00  0.00000000E+00  0.00000000E+00
  0.00000000E+00  0.00000000E+00  0.00000000E+00
  0.00000000E+00  0.00000000E+00  0.00000000E+00
  0.00000000E+00  0.00000000E+00  0.00000000E+00
  0.00000000E+00  0.00000000E+00  0.00000000E+00
  0.00000000E+00  0.00000000E+00  0.00000000E+00
  0.00000000E+00  0.00000000E+00  0.00000000E+00
  0.00000000E+00  0.00000000E+00  0.00000000E+00
  0.00000000E+00  0.00000000E+00  0.00000000E+00
  0.00000000E+00  0.00000000E+00  0.00000000E+00
  0.00000000E+00  0.00000000E+00  0.00000000E+00
  0.00000000E+00  0.00000000E+00  0.00000000E+00
  0.00000000E+00  0.00000000E+00  0.00000000E+00
  0.00000000E+00  0.00000000E+00  0.00000000E+00
  0.00000000E+00  0.00000000E+00  0.00000000E+00
  0.00000000E+00  0.00000000E+00  0.00000000E+00
  0.00000000E+00  0.00000000E+00  0.00000000E+00
  0.00000000E+00  0.00000000E+00  0.00000000E+00
  0.00000000E+00  0.00000000E+00  0.00000000E+00
  0.00000000E+00  0.00000000E+00  0.00000000E+00
  0.00000000E+00  0.00000000E+00  0.00000000E+00
  0.00000000E+00  0.00000000E+00  0.00000000E+00
  0.00000000E+00  0.00000000E+00  0.00000000E+00
  0.00000000E+00  0.00000000E+00  0.00000000E+00
  0.00000000E+00  0.00000000E+00  0.00000000E+00
  0.00000000E+00  0.00000000E+00  0.00000000E+00
  0.00000000E+00  0.00000000E+00  0.00000000E+00
  0.00000000E+00  0.00000000E+00  0.00000000E+00
  0.00000000E+00  0.00000000E+00  0.00000000E+00
  0.00000000E+00  0.00000000E+00  0.00000000E+00
  0.00000000E+00  0.00000000E+00  0.00000000E+00
  0.00000000E+00  0.00000000E+00  0.00000000E+00
  0.00000000E+00  0.00000000E+00  0.00000000E+00
  0.00000000E+00  0.00000000E+00  0.00000000E+00
  0.00000000E+00  0.00000000E+00  0.00000000E+00
  0.00000000E+00  0.00000000E+00  0.00000000E+00
  0.00000000E+00  0.00000000E+00  0.00000000E+00
  0.00000000E+00  0.00000000E+00  0.00000000E+00
  0.00000000E+00  0.00000000E+00  0.00000000E+00
  0.00000000E+00  0.00000000E+00  0.00000000E+00
  0.00000000E+00  0.00000000E+00  0.00000000E+00
  0.00000000E+00  0.00000000E+00  0.00000000E+00
  0.00000000E+00  0.00000000E+00  0.00000000E+00
  0.00000000E+00  0.00000000E+00  0.00000000E+00
  0.00000000E+00  0.00000000E+00  0.00000000E+00
  0.00000000E+00  0.00000000E+00  0.00000000E+00
  0.00000000E+00  0.00000000E+00  0.00000000E+00
  0.00000000E+00  0.00000000E+00  0.00000000E+00
  0.00000000E+00  0.00000000E+00  0.00000000E+00
  0.00000000E+00  0.00000000E+00  0.00000000E+00
  0.00000000E+00  0.00000000E+00  0.00000000E+00
  0.00000000E+00  0.00000000E+00  0.00000000E+00
  0.00000000E+00  0.00000000E+00  0.00000000E+00
  0.00000000E+00  0.00000000E+00  0.00000000E+00
  0.00000000E+00  0.00000000E+00  0.00000000E+00
  0.00000000E+00  0.00000000E+00  0.00000000E+00
  0.00000000E+00  0.00000000E+00  0.00000000E+00
  0.00000000E+00  0.00000000E+00  0.00000000E+00
  0.00000000E+00  0.00000000E+00  0.00000000E+00
  0.00000000E+00  0.00000000E+00  0.00000000E+00
  0.00000000E+00  0.00000000E+00  0.00000000E+00
  0.00000000E+00  0.00000000E+00  0.00000000E+00
  0.00000000E+00  0.00000000E+00  0.00000000E+00
  0.00000000E+00  0.00000000E+00  0.00000000E+00
  0.00000000E+00  0.00000000E+00  0.00000000E+00
  0.00000000E+00  0.00000000E+00  0.00000000E+00
