CoH_exp7	                               
   1.00000000000000     
    24.7659745794612576    0.0002191058242437   -0.0033615251039919
     0.0007021385290456   24.3374210868102772    4.0952649852762173
    -0.0004159433109817    0.5788685285667814    6.7833687300046766
   C    Co   H    N    O 
    80     4    32    24    16
Direct
  0.9009475125526691  0.9684847260775982  0.1143282470635967
  0.9341439066893074  0.9824866564466106  0.4023197551378530
  0.9007657500467872  0.8118731040571632  0.9391141419054492
  0.5989941090283679  0.4685103220233771  0.6133335343228694
  0.5659964770476051  0.2977067447900126  0.1506073244393420
  0.0657545587590604  0.7975197561941201  0.1515994505219709
  0.5658544200591464  0.4825316309745347  0.9013247260660648
  0.5991677412567711  0.3119495054614134  0.4383094913192807
  0.4339004196593308  0.4823845180903845  0.4012433615459585
  0.0990306654313713  0.8116569832351885  0.4392901372323266
  0.0658847233120667  0.9824352086528947  0.9023387535131491
  0.4341030514656126  0.2975723843820575  0.6504975582122512
  0.9340039063233831  0.7976148775272662  0.6515812933193956
  0.0990768009145242  0.9683497035909312  0.6144995800310866
  0.4008799659923312  0.3117965358654047  0.9381120493721227
  0.4007522813714530  0.4682451041259981  0.1133563249270892
  0.8235947738493010  0.0344657831791082  0.4478471929203138
  0.8423766473902603  0.0821324361648834  0.0828717318898597
  0.8420856763951079  0.6982214403976954  0.9707316625234270
  0.6576726714846117  0.5821358016329441  0.5822043936222769
  0.6578675012200677  0.1983110129650285  0.4703569262759686
  0.1762958096992691  0.7456335810550101  0.1058686410682981
  0.6763923611087037  0.5344318821422647  0.9471953309437708
  0.6766655068664420  0.2459555304107184  0.1052992490558537
  0.3232507482439004  0.5340666194754107  0.4471586581039091
  0.1575728602505606  0.6979120851993414  0.4708629369480235
  0.1576705568710608  0.0819811042903922  0.5828531121773608
  0.3422311732003109  0.1981644878994615  0.9701883699937781
  0.8233608971492288  0.7459214458559416  0.6056732175930435
  0.1764415872273730  0.0343976309142207  0.9479554968676993
  0.3234193731907666  0.2457866974839362  0.6051123846190407
  0.3419244024147048  0.5818145883106922  0.0822065843455562
  0.7808142939895504  0.0764816577052656  0.4489063296785716
  0.8003797544495370  0.1241799097318577  0.0935401864468943
  0.8000778712742331  0.6562057810944140  0.9598445788838603
  0.6996801605455261  0.6241576129412820  0.5931213121171908
  0.6998859972714939  0.1562824710840829  0.4597248946724761
  0.2190527972060536  0.7036261297587103  0.1045473345288883
  0.7191867024877041  0.5764164303031833  0.9485150197078198
  0.7194537347564918  0.2039577815050961  0.1042756149184072
  0.2804215497234424  0.5760239666908049  0.4485295440339883
  0.1995295303326756  0.6558357990877610  0.4599155319130688
  0.1996661274888680  0.1240327961932266  0.5934896299262959
  0.3002059132611663  0.1561437027611063  0.9596106711189165
  0.7805890428787947  0.7039287249747588  0.6043482023360056
  0.2192513750322007  0.0763803601091411  0.9489395520212867
  0.2806367864160322  0.2037814921283854  0.6040994821572312
  0.2999189695927029  0.6238285121903147  0.0932327161444775
  0.7506777211642657  0.0730502989495179  0.6238617342619861
  0.7899069386963902  0.1677235629811307  0.9240438523297243
  0.7896013589145667  0.6126131194303071  0.1291729040736627
  0.7101828099012195  0.6677162507719032  0.4237290261740370
  0.7103533308217393  0.1127153800582548  0.6291560907302909
  0.2491329312987673  0.7070805809333436  0.9294309858692031
  0.7492871865109265  0.5729571679644039  0.1236367493930999
  0.7495645063873155  0.2073640532800667  0.9292566871581869
  0.2503200139960384  0.5725521393712754  0.6236124088910771
  0.2100030325406195  0.6122096381544466  0.6291758220626846
  0.2101433671984978  0.1675545573317549  0.4239395255513756
  0.2897416888371822  0.1126075975322962  0.1291433304567704
  0.7505224856623087  0.7073502155207620  0.4291606243475599
  0.2493996049052569  0.0729580510076744  0.1239156412795666
  0.2505136438641173  0.2071775083308793  0.4290875439509421
  0.2894577965582528  0.6674384742497992  0.9239669094101544
  0.8932118026859968  0.9996946423731004  0.2584850826789804
  0.8930021690108276  0.7805938924880493  0.7951999164742318
  0.6067901968542841  0.4996975347626886  0.7575487468454298
  0.6069694541005930  0.2806734657176122  0.2944138818001107
  0.1067208876027905  0.7803770295881804  0.2953522792374770
  0.3929320966426104  0.4994637331185743  0.2574703513492835
  0.1068293153520088  0.9995874501903472  0.7585817573620943
  0.3931328940324761  0.2805029841184634  0.7942296349131794
  0.7705642332102940  0.1200792413219958  0.2739124143693346
  0.7703008310067432  0.6603401569369893  0.7792947950005384
  0.7294665666877123  0.6200272547126104  0.7736158011714522
  0.7297094653026903  0.1603927975033699  0.2793250571794132
  0.2293120555171910  0.6599906953287586  0.2794070136434499
  0.2701335537611556  0.6196646017973393  0.2736944767381218
  0.2295060009527958  0.1199363453435751  0.7738545527146243
  0.2703773683055672  0.1602340385351084  0.7791980607849496
  0.9870445414118336  0.8900466885273630  0.0268496740588589
  0.0128902904019483  0.8899944352204869  0.5268875270635434
  0.5128266621235937  0.3900912338024511  0.5257364293166944
  0.4871007320034337  0.3900703142439994  0.0256027799080130
  0.3133446912597861  0.1102968299927412  0.2660735443628113
  0.7405310706039501  0.5390483752380106  0.2563507825730014
  0.7407692391943073  0.2412398985658015  0.7964535731587219
  0.7594028448472798  0.0391309972274314  0.7565893810298761
  0.7593277377519172  0.7412305764405289  0.2963904958485557
  0.6866317297927225  0.6700399148093084  0.2866730425736179
  0.1864359608379544  0.6098258360070403  0.7662192868754971
  0.1865516383040955  0.1698689873824222  0.2869708920115457
  0.8131711081340214  0.6102540095353532  0.2662205169257206
  0.2593114700981616  0.2410290888154307  0.2962223559267656
  0.2590602529070196  0.5386106103331088  0.7562743821136522
  0.2403543148535547  0.7409956185706008  0.7967379278600717
  0.3130567517369727  0.6697877704174857  0.7870325891349381
  0.6867699443029167  0.1103780502321783  0.7661264921335800
  0.8135043885999949  0.1700337439670392  0.7871354810628262
  0.2406742736015488  0.0390727745328547  0.2567385415735473
  0.5573856912040114  0.4953139383821181  0.0394919117311119
  0.4426361482378951  0.2846938237716117  0.5125773868665888
  0.3790646234585111  0.4693834072441518  0.9737445343339886
  0.1207197691781019  0.8104961667323636  0.5789139061719624
  0.0573892343017377  0.9952530515329059  0.0404116618439119
  0.3792076637785868  0.3106481498822902  0.0777054746090613
  0.8792465548304094  0.9696884582390055  0.9747117933591767
  0.9425031615825787  0.7847183434480201  0.5136903169772324
  0.1207690862341835  0.9695295167998950  0.4749061256619669
  0.6206719494346444  0.4697167916021527  0.4737023461048295
  0.5574922062443122  0.2848143056444385  0.0126882743852619
  0.9426425362141515  0.9952603697206612  0.5404807043930262
  0.6208142141719009  0.3108345767923169  0.5779819458226214
  0.4423583700922364  0.4952048327171781  0.5393475906439562
  0.0572056640819625  0.7846516192439594  0.0136768392726836
  0.8790930976412312  0.8107772824769484  0.0786941944736839
  0.9437605911813023  0.9343503475533765  0.1712133713875588
  0.9643339680203837  0.9432264333310698  0.3475750832418285
  0.9436676744213415  0.8458788524821088  0.8822653929673479
  0.5561445612368132  0.4344233013952632  0.6701259567487838
  0.5357242749559745  0.3369524951164138  0.2051043138474853
  0.0355860772531784  0.8368188464873043  0.2061821752025139
  0.5356100984599550  0.4433201178285344  0.8464842513971362
  0.5562787743251718  0.3459664935048750  0.3812902957104498
  0.4642018998090123  0.4432051995412394  0.3464718005704341
  0.0561995901847183  0.8457724963145452  0.3823661041310373
  0.0356608918387167  0.9431934983338550  0.8475985571145870
  0.4643196356626618  0.3368526878300742  0.7050603031848510
  0.9642602211741576  0.8368592296465067  0.7061724180957469
  0.0562339408609063  0.9342598648460125  0.6713416896585755
  0.4437352395255587  0.3458568855056470  0.8811819527805369
  0.4436622356618685  0.4342351739973864  0.1701976531905132
  0.8521694521864802  0.0398013446280459  0.2628072894810387
  0.8518874074814491  0.7405677121318419  0.7908648788626778
  0.6478590975817085  0.5397758657972673  0.7620132429056596
  0.6480948106634372  0.2406320459353282  0.2903418408345715
  0.1477804099051880  0.7402873299881136  0.2910301169028955
  0.3517944387415639  0.5394693943522384  0.2619794070630519
  0.1478799453711162  0.0396889747711242  0.7628705875656934
  0.3520388217013775  0.2404358898515895  0.7901117130687325
  0.8340466408134333  0.9966608284850125  0.5981093829409616
  0.8675337303030446  0.0833339197683358  0.9262755135785881
  0.8672675017910905  0.6969852307703306  0.1273510876800898
  0.6325146788627762  0.5833915314644429  0.4255428112498123
  0.6326488063258111  0.1971125042285209  0.6268267561602769
  0.1657980603779876  0.7834343056006361  0.9556593101717539
  0.6658976781378527  0.4966395045964020  0.0974327463662732
  0.6662027235103523  0.2837212604312001  0.9549295502583206
  0.3337804277297849  0.4962634948943005  0.5973309505426272
  0.1324338379041592  0.6967033827169047  0.6275127172687505
  0.1325169568037197  0.0831322683393836  0.4262558783230901
  0.3674153346912448  0.1970099958279690  0.1267404712729032
  0.8338459712764177  0.7837172941225745  0.4554463552256678
  0.1659695719806678  0.9966439466341654  0.0983266385359869
  0.3338416893230800  0.2835858523652419  0.4548343014936265
  0.3670374728111767  0.5830881115814606  0.9254528676059408
 
  0.00000000E+00  0.00000000E+00  0.00000000E+00
  0.00000000E+00  0.00000000E+00  0.00000000E+00
  0.00000000E+00  0.00000000E+00  0.00000000E+00
  0.00000000E+00  0.00000000E+00  0.00000000E+00
  0.00000000E+00  0.00000000E+00  0.00000000E+00
  0.00000000E+00  0.00000000E+00  0.00000000E+00
  0.00000000E+00  0.00000000E+00  0.00000000E+00
  0.00000000E+00  0.00000000E+00  0.00000000E+00
  0.00000000E+00  0.00000000E+00  0.00000000E+00
  0.00000000E+00  0.00000000E+00  0.00000000E+00
  0.00000000E+00  0.00000000E+00  0.00000000E+00
  0.00000000E+00  0.00000000E+00  0.00000000E+00
  0.00000000E+00  0.00000000E+00  0.00000000E+00
  0.00000000E+00  0.00000000E+00  0.00000000E+00
  0.00000000E+00  0.00000000E+00  0.00000000E+00
  0.00000000E+00  0.00000000E+00  0.00000000E+00
  0.00000000E+00  0.00000000E+00  0.00000000E+00
  0.00000000E+00  0.00000000E+00  0.00000000E+00
  0.00000000E+00  0.00000000E+00  0.00000000E+00
  0.00000000E+00  0.00000000E+00  0.00000000E+00
  0.00000000E+00  0.00000000E+00  0.00000000E+00
  0.00000000E+00  0.00000000E+00  0.00000000E+00
  0.00000000E+00  0.00000000E+00  0.00000000E+00
  0.00000000E+00  0.00000000E+00  0.00000000E+00
  0.00000000E+00  0.00000000E+00  0.00000000E+00
  0.00000000E+00  0.00000000E+00  0.00000000E+00
  0.00000000E+00  0.00000000E+00  0.00000000E+00
  0.00000000E+00  0.00000000E+00  0.00000000E+00
  0.00000000E+00  0.00000000E+00  0.00000000E+00
  0.00000000E+00  0.00000000E+00  0.00000000E+00
  0.00000000E+00  0.00000000E+00  0.00000000E+00
  0.00000000E+00  0.00000000E+00  0.00000000E+00
  0.00000000E+00  0.00000000E+00  0.00000000E+00
  0.00000000E+00  0.00000000E+00  0.00000000E+00
  0.00000000E+00  0.00000000E+00  0.00000000E+00
  0.00000000E+00  0.00000000E+00  0.00000000E+00
  0.00000000E+00  0.00000000E+00  0.00000000E+00
  0.00000000E+00  0.00000000E+00  0.00000000E+00
  0.00000000E+00  0.00000000E+00  0.00000000E+00
  0.00000000E+00  0.00000000E+00  0.00000000E+00
  0.00000000E+00  0.00000000E+00  0.00000000E+00
  0.00000000E+00  0.00000000E+00  0.00000000E+00
  0.00000000E+00  0.00000000E+00  0.00000000E+00
  0.00000000E+00  0.00000000E+00  0.00000000E+00
  0.00000000E+00  0.00000000E+00  0.00000000E+00
  0.00000000E+00  0.00000000E+00  0.00000000E+00
  0.00000000E+00  0.00000000E+00  0.00000000E+00
  0.00000000E+00  0.00000000E+00  0.00000000E+00
  0.00000000E+00  0.00000000E+00  0.00000000E+00
  0.00000000E+00  0.00000000E+00  0.00000000E+00
  0.00000000E+00  0.00000000E+00  0.00000000E+00
  0.00000000E+00  0.00000000E+00  0.00000000E+00
  0.00000000E+00  0.00000000E+00  0.00000000E+00
  0.00000000E+00  0.00000000E+00  0.00000000E+00
  0.00000000E+00  0.00000000E+00  0.00000000E+00
  0.00000000E+00  0.00000000E+00  0.00000000E+00
  0.00000000E+00  0.00000000E+00  0.00000000E+00
  0.00000000E+00  0.00000000E+00  0.00000000E+00
  0.00000000E+00  0.00000000E+00  0.00000000E+00
  0.00000000E+00  0.00000000E+00  0.00000000E+00
  0.00000000E+00  0.00000000E+00  0.00000000E+00
  0.00000000E+00  0.00000000E+00  0.00000000E+00
  0.00000000E+00  0.00000000E+00  0.00000000E+00
  0.00000000E+00  0.00000000E+00  0.00000000E+00
  0.00000000E+00  0.00000000E+00  0.00000000E+00
  0.00000000E+00  0.00000000E+00  0.00000000E+00
  0.00000000E+00  0.00000000E+00  0.00000000E+00
  0.00000000E+00  0.00000000E+00  0.00000000E+00
  0.00000000E+00  0.00000000E+00  0.00000000E+00
  0.00000000E+00  0.00000000E+00  0.00000000E+00
  0.00000000E+00  0.00000000E+00  0.00000000E+00
  0.00000000E+00  0.00000000E+00  0.00000000E+00
  0.00000000E+00  0.00000000E+00  0.00000000E+00
  0.00000000E+00  0.00000000E+00  0.00000000E+00
  0.00000000E+00  0.00000000E+00  0.00000000E+00
  0.00000000E+00  0.00000000E+00  0.00000000E+00
  0.00000000E+00  0.00000000E+00  0.00000000E+00
  0.00000000E+00  0.00000000E+00  0.00000000E+00
  0.00000000E+00  0.00000000E+00  0.00000000E+00
  0.00000000E+00  0.00000000E+00  0.00000000E+00
  0.00000000E+00  0.00000000E+00  0.00000000E+00
  0.00000000E+00  0.00000000E+00  0.00000000E+00
  0.00000000E+00  0.00000000E+00  0.00000000E+00
  0.00000000E+00  0.00000000E+00  0.00000000E+00
  0.00000000E+00  0.00000000E+00  0.00000000E+00
  0.00000000E+00  0.00000000E+00  0.00000000E+00
  0.00000000E+00  0.00000000E+00  0.00000000E+00
  0.00000000E+00  0.00000000E+00  0.00000000E+00
  0.00000000E+00  0.00000000E+00  0.00000000E+00
  0.00000000E+00  0.00000000E+00  0.00000000E+00
  0.00000000E+00  0.00000000E+00  0.00000000E+00
  0.00000000E+00  0.00000000E+00  0.00000000E+00
  0.00000000E+00  0.00000000E+00  0.00000000E+00
  0.00000000E+00  0.00000000E+00  0.00000000E+00
  0.00000000E+00  0.00000000E+00  0.00000000E+00
  0.00000000E+00  0.00000000E+00  0.00000000E+00
  0.00000000E+00  0.00000000E+00  0.00000000E+00
  0.00000000E+00  0.00000000E+00  0.00000000E+00
  0.00000000E+00  0.00000000E+00  0.00000000E+00
  0.00000000E+00  0.00000000E+00  0.00000000E+00
  0.00000000E+00  0.00000000E+00  0.00000000E+00
  0.00000000E+00  0.00000000E+00  0.00000000E+00
  0.00000000E+00  0.00000000E+00  0.00000000E+00
  0.00000000E+00  0.00000000E+00  0.00000000E+00
  0.00000000E+00  0.00000000E+00  0.00000000E+00
  0.00000000E+00  0.00000000E+00  0.00000000E+00
  0.00000000E+00  0.00000000E+00  0.00000000E+00
  0.00000000E+00  0.00000000E+00  0.00000000E+00
  0.00000000E+00  0.00000000E+00  0.00000000E+00
  0.00000000E+00  0.00000000E+00  0.00000000E+00
  0.00000000E+00  0.00000000E+00  0.00000000E+00
  0.00000000E+00  0.00000000E+00  0.00000000E+00
  0.00000000E+00  0.00000000E+00  0.00000000E+00
  0.00000000E+00  0.00000000E+00  0.00000000E+00
  0.00000000E+00  0.00000000E+00  0.00000000E+00
  0.00000000E+00  0.00000000E+00  0.00000000E+00
  0.00000000E+00  0.00000000E+00  0.00000000E+00
  0.00000000E+00  0.00000000E+00  0.00000000E+00
  0.00000000E+00  0.00000000E+00  0.00000000E+00
  0.00000000E+00  0.00000000E+00  0.00000000E+00
  0.00000000E+00  0.00000000E+00  0.00000000E+00
  0.00000000E+00  0.00000000E+00  0.00000000E+00
  0.00000000E+00  0.00000000E+00  0.00000000E+00
  0.00000000E+00  0.00000000E+00  0.00000000E+00
  0.00000000E+00  0.00000000E+00  0.00000000E+00
  0.00000000E+00  0.00000000E+00  0.00000000E+00
  0.00000000E+00  0.00000000E+00  0.00000000E+00
  0.00000000E+00  0.00000000E+00  0.00000000E+00
  0.00000000E+00  0.00000000E+00  0.00000000E+00
  0.00000000E+00  0.00000000E+00  0.00000000E+00
  0.00000000E+00  0.00000000E+00  0.00000000E+00
  0.00000000E+00  0.00000000E+00  0.00000000E+00
  0.00000000E+00  0.00000000E+00  0.00000000E+00
  0.00000000E+00  0.00000000E+00  0.00000000E+00
  0.00000000E+00  0.00000000E+00  0.00000000E+00
  0.00000000E+00  0.00000000E+00  0.00000000E+00
  0.00000000E+00  0.00000000E+00  0.00000000E+00
  0.00000000E+00  0.00000000E+00  0.00000000E+00
  0.00000000E+00  0.00000000E+00  0.00000000E+00
  0.00000000E+00  0.00000000E+00  0.00000000E+00
  0.00000000E+00  0.00000000E+00  0.00000000E+00
  0.00000000E+00  0.00000000E+00  0.00000000E+00
  0.00000000E+00  0.00000000E+00  0.00000000E+00
  0.00000000E+00  0.00000000E+00  0.00000000E+00
  0.00000000E+00  0.00000000E+00  0.00000000E+00
  0.00000000E+00  0.00000000E+00  0.00000000E+00
  0.00000000E+00  0.00000000E+00  0.00000000E+00
  0.00000000E+00  0.00000000E+00  0.00000000E+00
  0.00000000E+00  0.00000000E+00  0.00000000E+00
  0.00000000E+00  0.00000000E+00  0.00000000E+00
  0.00000000E+00  0.00000000E+00  0.00000000E+00
  0.00000000E+00  0.00000000E+00  0.00000000E+00
  0.00000000E+00  0.00000000E+00  0.00000000E+00
  0.00000000E+00  0.00000000E+00  0.00000000E+00
  0.00000000E+00  0.00000000E+00  0.00000000E+00
  0.00000000E+00  0.00000000E+00  0.00000000E+00
