Zn_H                                    
   1.00000000000000     
    13.3532495365494395   -0.0014368004637587   -0.0099539867675660
     0.0014528409455373   31.9829560604972265   -2.2916106176774305
    -0.0042613557459293   -0.4429824934252692    6.5256182479040641
   C    Zn   H    N    O 
    80     4    32    24    16
Direct
  0.9278902127450621  0.9595197853972977  0.1248241231170155
  0.8409500076391723  0.9514302384292748  0.4072906211569176
  0.9294871253241084  0.7961339414140767  0.9180408051350781
  0.5717438508184571  0.4595282311105038  0.6256441165544828
  0.6573232644023506  0.3039710653658290  0.1358540667536374
  0.1590992619317291  0.8043429503764230  0.1366736800581734
  0.6586398504256223  0.4515308364876844  0.9087938560170059
  0.5702607218130140  0.2960895660973648  0.4184201237949736
  0.3413323893044051  0.4517513470828263  0.4086629732127278
  0.0722275302106183  0.7964590537110965  0.4195083534084247
  0.1583945069838109  0.9517383006054061  0.9087993575583582
  0.3405831763421432  0.3043203523155924  0.6360813697105385
  0.8424806232370443  0.8038262197632378  0.6346640186356325
  0.0710745944297599  0.9597661569852178  0.6262162167767116
  0.4273802033790801  0.2964733013216687  0.9195376375342121
  0.4286039856424537  0.4598171765655295  0.1265503283692553
  0.7674858511729639  0.0309307617649779  0.1028020311406124
  0.8597356894665182  0.0521330250290220  0.4361239147205467
  0.8632332451191402  0.7030575781122934  0.6078856323535220
  0.6400745485646482  0.5522363495433567  0.9367861434638343
  0.6368548183592821  0.2031822313475189  0.1076023150604470
  0.2318534604453646  0.7248656229178110  0.4420034994400766
  0.7321045564792783  0.5308964148134550  0.6038237604394894
  0.7298847259309937  0.2244195345903179  0.4398988180283823
  0.2685129374870527  0.5313556828216761  0.1051767168394875
  0.1391744752751478  0.7036926706706268  0.1091696118586540
  0.1387239460856051  0.0524819979365390  0.9377715373543225
  0.3600675921857928  0.2036931697683855  0.6086209610723543
  0.7702553805102141  0.7244259167482667  0.9395289624639531
  0.2314132130336901  0.0312776992846509  0.6055297957280885
  0.2679785139370381  0.2248524359201625  0.9416226367753424
  0.3609846815035880  0.5524981872939350  0.4382543165320527
  0.7350006828447349  0.0753187420845265  0.1069923581285579
  0.8251756868756956  0.0960583423212213  0.4344217974951619
  0.8284823393885077  0.6591513662705850  0.6096061536067410
  0.6747677223267274  0.5961341395851463  0.9348564228789655
  0.6715654510479894  0.1592574541194764  0.1090392448927773
  0.2638926055084383  0.6804442525524621  0.4381240537921371
  0.7647913712405554  0.5752509664522165  0.6078710122491131
  0.7620008340638904  0.1800061851277093  0.4361585201334037
  0.2363291305812254  0.5757662442423026  0.1091646637154113
  0.1734510758861063  0.6597430900802976  0.1109436270224293
  0.1731141777311151  0.0964344152368142  0.9360796474421775
  0.3258926440726100  0.1597304518809821  0.6105835839142344
  0.7381345269505886  0.6800310962526694  0.9361495973998046
  0.2633640559681609  0.0757135786711203  0.6092147097243767
  0.2358657844689063  0.1804348000181122  0.9377161332137618
  0.3266707052780831  0.5964548777095402  0.4364367073101931
  0.6753679465627656  0.0863078116779974  0.9484648894489069
  0.8532317032086354  0.1272053134768214  0.5936784978565370
  0.8563577408079226  0.6279566923062703  0.4506329476990416
  0.6468662774520126  0.6273302361693780  0.0938205992342844
  0.6435525804071105  0.1281138953796912  0.9497614132856782
  0.3234165655711863  0.6694191969939283  0.5966818517981025
  0.8244181015577325  0.5861693164985837  0.4495181571988240
  0.8216189331448476  0.1690258489367906  0.5946927118795102
  0.1767779597698649  0.5867841644008394  0.9506061000747863
  0.1452756735318772  0.6286222950222182  0.9516921542485761
  0.1450756783880180  0.1275656275272468  0.0952119199955987
  0.3540031233701626  0.1285972385292027  0.4515229248916697
  0.6785634734119910  0.6691331818703503  0.0946177501925760
  0.3227422355633607  0.0867362604113282  0.4507185920845842
  0.1765248140612812  0.1694126127696620  0.0962456210601133
  0.3548417084814446  0.6275768778903767  0.5956627960731637
  0.8605629013370262  0.9798667019030560  0.2685021672700714
  0.8627562922677043  0.7754823079389723  0.7736296885576905
  0.6390086820023626  0.4799312081544116  0.7697144988750679
  0.6371184017579026  0.2755447402588800  0.2743631520143452
  0.1393616345122055  0.7759990984531839  0.2758324150161400
  0.3614540737832215  0.4802318191564794  0.2704101843297693
  0.1383001887899908  0.9801956906649494  0.7702896005767812
  0.3602716307272686  0.2759900921899217  0.7754444454486986
  0.7643530871505391  0.1064303659909669  0.2712788984656100
  0.7675297287080838  0.6488577132523687  0.7724077270721637
  0.7355848627161166  0.6064166081131575  0.7718432475840586
  0.7325134086166045  0.1488890032822283  0.2720270190409124
  0.2342985718476172  0.6493489570954267  0.2739923466257821
  0.2658832664031223  0.6068639145563637  0.2733150654846739
  0.2337999977629650  0.1068306251556379  0.7730975578834176
  0.2652911328473095  0.1493295627449740  0.7736633051653712
  0.0401728308956848  0.8779471267941261  0.0218700395610369
  0.9599451398254075  0.8779039102858732  0.5215783658961755
  0.4595308015655419  0.3779419894770655  0.5221485964326575
  0.5394790276085502  0.3779632012542109  0.0224835173220868
  0.4004014026890204  0.1375543330040472  0.3276427293886215
  0.8454742330070815  0.5615380364793836  0.3249943435810607
  0.8429786870908345  0.1936442254281587  0.7191627458105572
  0.6542169679836860  0.0617074395882824  0.8237371950544343
  0.6573104651148185  0.6938099568296963  0.2187770289171240
  0.6001876137443247  0.6184634029252649  0.2174780203600619
  0.0986559352246417  0.6375772412948919  0.8278909913701824
  0.0985707430856024  0.1186275370908945  0.2189789640964293
  0.9031174799550072  0.6367981447444748  0.3270180835773573
  0.1553043106823964  0.1940013182620817  0.2208233592059159
  0.1554295556290839  0.5621900789474168  0.8260246494535082
  0.3447856157446836  0.6940181880036747  0.7212082064475780
  0.4014520490899116  0.6186259409430335  0.7194629984375354
  0.5967803733954327  0.1370228269807257  0.8260712613340715
  0.8999074577284247  0.1182895835839517  0.7174670367766183
  0.3441221812304391  0.0621271596777362  0.3263726811348135
  0.7041673382411915  0.4552512124565951  0.0479199584860055
  0.2951087025905466  0.3004699479674215  0.4969072326266186
  0.4631729496391159  0.4713311570040162  0.9953004255508660
  0.0380402993840292  0.7850430580544696  0.5514141969859807
  0.2040668587488312  0.9554858752450528  0.0477221662661265
  0.4615334916341780  0.2850745459671842  0.0516789950018932
  0.9621503725006946  0.9709975101501058  0.9931791634001996
  0.7970244711417962  0.7999157487411637  0.4954520560915938
  0.0365252070424376  0.9712505928568831  0.4947008398460753
  0.5375412756338349  0.4709548259291836  0.4936284476980859
  0.7028557189519802  0.3001670395842737  0.9970186684342934
  0.7953966624747792  0.9551035910393040  0.5461340517474085
  0.5358221740082030  0.2846806526866743  0.5500699552285724
  0.2956982056744550  0.4554821518086740  0.5473577301678887
  0.2046110162623691  0.8005217648895311  0.9978012356546699
  0.9639081170756256  0.7848028749788796  0.0500897775263667
  0.9478257479429075  0.9211989525798572  0.1755341332672060
  0.8938600718353769  0.9159057152641878  0.3481539362205837
  0.9485071823042759  0.8345350263267122  0.8675412323268858
  0.5518499687883107  0.4212122368218516  0.6763845245087268
  0.6051509464291556  0.3396839461056373  0.1954492762167064
  0.1063593469792821  0.8399375625157788  0.1955398009477634
  0.6057546316338431  0.4159779331992155  0.8494732977893449
  0.5511252931704433  0.3345105466775706  0.3681632962041803
  0.3938066102000093  0.4161246279380961  0.3491113971194224
  0.0524760506165833  0.8347627341599235  0.3684382735316234
  0.1058437481461283  0.9161143471650846  0.8491141389418573
  0.3932947192981402  0.3399282148403202  0.6952833572048220
  0.8945127455333335  0.8395951686829264  0.6943307783838506
  0.0516360097177682  0.9213712404521317  0.6764355899230665
  0.4471465578289937  0.3347737637690003  0.8685519103927035
  0.4479691171785660  0.4214030424155197  0.1767226126575139
  0.8251881336941125  0.0218704814677650  0.2731439571641161
  0.8279768673925929  0.7334089974818525  0.7694179749098069
  0.6744535881267808  0.5219205634370638  0.7741073825111755
  0.6720079740617280  0.2334724429619399  0.2697940180223171
  0.1743614666828890  0.7339594977214645  0.2714512238176425
  0.3263662694928016  0.5222767890959688  0.2752489466566601
  0.1734242604057954  0.0222366349310121  0.7751687998682613
  0.3252162603347131  0.2339563871913199  0.7710307278467639
  0.7457640757964938  0.0032445291006482  0.9606623859267955
  0.9152373474463076  0.0422097447141780  0.5714490204679166
  0.9193803343347327  0.7128926169642327  0.4736993144647457
  0.5846443221878062  0.5423748187269553  0.0720497973177814
  0.5807927415877145  0.2130790763929440  0.9731294349409012
  0.2537867459490926  0.7525482487359980  0.5840207550875149
  0.7536506378431795  0.5031640930731456  0.4619123177764664
  0.7521070145317026  0.2521505160624216  0.5814588668653045
  0.2463969044771517  0.5036489891217784  0.9634241298643147
  0.0834138748138926  0.7136386304558755  0.9743114793191623
  0.0832634404541466  0.0425213090038241  0.0727828527616623
  0.4155169836443093  0.2136394557501973  0.4735671175962253
  0.7481786666366261  0.7522099632209773  0.0808134494344017
  0.2537652427557902  0.0035191639482335  0.4643300231251501
  0.2463048728364612  0.2525261894692790  0.0837115681698322
  0.4163444254645654  0.5425202929454755  0.5736790651574708
 
  0.00000000E+00  0.00000000E+00  0.00000000E+00
  0.00000000E+00  0.00000000E+00  0.00000000E+00
  0.00000000E+00  0.00000000E+00  0.00000000E+00
  0.00000000E+00  0.00000000E+00  0.00000000E+00
  0.00000000E+00  0.00000000E+00  0.00000000E+00
  0.00000000E+00  0.00000000E+00  0.00000000E+00
  0.00000000E+00  0.00000000E+00  0.00000000E+00
  0.00000000E+00  0.00000000E+00  0.00000000E+00
  0.00000000E+00  0.00000000E+00  0.00000000E+00
  0.00000000E+00  0.00000000E+00  0.00000000E+00
  0.00000000E+00  0.00000000E+00  0.00000000E+00
  0.00000000E+00  0.00000000E+00  0.00000000E+00
  0.00000000E+00  0.00000000E+00  0.00000000E+00
  0.00000000E+00  0.00000000E+00  0.00000000E+00
  0.00000000E+00  0.00000000E+00  0.00000000E+00
  0.00000000E+00  0.00000000E+00  0.00000000E+00
  0.00000000E+00  0.00000000E+00  0.00000000E+00
  0.00000000E+00  0.00000000E+00  0.00000000E+00
  0.00000000E+00  0.00000000E+00  0.00000000E+00
  0.00000000E+00  0.00000000E+00  0.00000000E+00
  0.00000000E+00  0.00000000E+00  0.00000000E+00
  0.00000000E+00  0.00000000E+00  0.00000000E+00
  0.00000000E+00  0.00000000E+00  0.00000000E+00
  0.00000000E+00  0.00000000E+00  0.00000000E+00
  0.00000000E+00  0.00000000E+00  0.00000000E+00
  0.00000000E+00  0.00000000E+00  0.00000000E+00
  0.00000000E+00  0.00000000E+00  0.00000000E+00
  0.00000000E+00  0.00000000E+00  0.00000000E+00
  0.00000000E+00  0.00000000E+00  0.00000000E+00
  0.00000000E+00  0.00000000E+00  0.00000000E+00
  0.00000000E+00  0.00000000E+00  0.00000000E+00
  0.00000000E+00  0.00000000E+00  0.00000000E+00
  0.00000000E+00  0.00000000E+00  0.00000000E+00
  0.00000000E+00  0.00000000E+00  0.00000000E+00
  0.00000000E+00  0.00000000E+00  0.00000000E+00
  0.00000000E+00  0.00000000E+00  0.00000000E+00
  0.00000000E+00  0.00000000E+00  0.00000000E+00
  0.00000000E+00  0.00000000E+00  0.00000000E+00
  0.00000000E+00  0.00000000E+00  0.00000000E+00
  0.00000000E+00  0.00000000E+00  0.00000000E+00
  0.00000000E+00  0.00000000E+00  0.00000000E+00
  0.00000000E+00  0.00000000E+00  0.00000000E+00
  0.00000000E+00  0.00000000E+00  0.00000000E+00
  0.00000000E+00  0.00000000E+00  0.00000000E+00
  0.00000000E+00  0.00000000E+00  0.00000000E+00
  0.00000000E+00  0.00000000E+00  0.00000000E+00
  0.00000000E+00  0.00000000E+00  0.00000000E+00
  0.00000000E+00  0.00000000E+00  0.00000000E+00
  0.00000000E+00  0.00000000E+00  0.00000000E+00
  0.00000000E+00  0.00000000E+00  0.00000000E+00
  0.00000000E+00  0.00000000E+00  0.00000000E+00
  0.00000000E+00  0.00000000E+00  0.00000000E+00
  0.00000000E+00  0.00000000E+00  0.00000000E+00
  0.00000000E+00  0.00000000E+00  0.00000000E+00
  0.00000000E+00  0.00000000E+00  0.00000000E+00
  0.00000000E+00  0.00000000E+00  0.00000000E+00
  0.00000000E+00  0.00000000E+00  0.00000000E+00
  0.00000000E+00  0.00000000E+00  0.00000000E+00
  0.00000000E+00  0.00000000E+00  0.00000000E+00
  0.00000000E+00  0.00000000E+00  0.00000000E+00
  0.00000000E+00  0.00000000E+00  0.00000000E+00
  0.00000000E+00  0.00000000E+00  0.00000000E+00
  0.00000000E+00  0.00000000E+00  0.00000000E+00
  0.00000000E+00  0.00000000E+00  0.00000000E+00
  0.00000000E+00  0.00000000E+00  0.00000000E+00
  0.00000000E+00  0.00000000E+00  0.00000000E+00
  0.00000000E+00  0.00000000E+00  0.00000000E+00
  0.00000000E+00  0.00000000E+00  0.00000000E+00
  0.00000000E+00  0.00000000E+00  0.00000000E+00
  0.00000000E+00  0.00000000E+00  0.00000000E+00
  0.00000000E+00  0.00000000E+00  0.00000000E+00
  0.00000000E+00  0.00000000E+00  0.00000000E+00
  0.00000000E+00  0.00000000E+00  0.00000000E+00
  0.00000000E+00  0.00000000E+00  0.00000000E+00
  0.00000000E+00  0.00000000E+00  0.00000000E+00
  0.00000000E+00  0.00000000E+00  0.00000000E+00
  0.00000000E+00  0.00000000E+00  0.00000000E+00
  0.00000000E+00  0.00000000E+00  0.00000000E+00
  0.00000000E+00  0.00000000E+00  0.00000000E+00
  0.00000000E+00  0.00000000E+00  0.00000000E+00
  0.00000000E+00  0.00000000E+00  0.00000000E+00
  0.00000000E+00  0.00000000E+00  0.00000000E+00
  0.00000000E+00  0.00000000E+00  0.00000000E+00
  0.00000000E+00  0.00000000E+00  0.00000000E+00
  0.00000000E+00  0.00000000E+00  0.00000000E+00
  0.00000000E+00  0.00000000E+00  0.00000000E+00
  0.00000000E+00  0.00000000E+00  0.00000000E+00
  0.00000000E+00  0.00000000E+00  0.00000000E+00
  0.00000000E+00  0.00000000E+00  0.00000000E+00
  0.00000000E+00  0.00000000E+00  0.00000000E+00
  0.00000000E+00  0.00000000E+00  0.00000000E+00
  0.00000000E+00  0.00000000E+00  0.00000000E+00
  0.00000000E+00  0.00000000E+00  0.00000000E+00
  0.00000000E+00  0.00000000E+00  0.00000000E+00
  0.00000000E+00  0.00000000E+00  0.00000000E+00
  0.00000000E+00  0.00000000E+00  0.00000000E+00
  0.00000000E+00  0.00000000E+00  0.00000000E+00
  0.00000000E+00  0.00000000E+00  0.00000000E+00
  0.00000000E+00  0.00000000E+00  0.00000000E+00
  0.00000000E+00  0.00000000E+00  0.00000000E+00
  0.00000000E+00  0.00000000E+00  0.00000000E+00
  0.00000000E+00  0.00000000E+00  0.00000000E+00
  0.00000000E+00  0.00000000E+00  0.00000000E+00
  0.00000000E+00  0.00000000E+00  0.00000000E+00
  0.00000000E+00  0.00000000E+00  0.00000000E+00
  0.00000000E+00  0.00000000E+00  0.00000000E+00
  0.00000000E+00  0.00000000E+00  0.00000000E+00
  0.00000000E+00  0.00000000E+00  0.00000000E+00
  0.00000000E+00  0.00000000E+00  0.00000000E+00
  0.00000000E+00  0.00000000E+00  0.00000000E+00
  0.00000000E+00  0.00000000E+00  0.00000000E+00
  0.00000000E+00  0.00000000E+00  0.00000000E+00
  0.00000000E+00  0.00000000E+00  0.00000000E+00
  0.00000000E+00  0.00000000E+00  0.00000000E+00
  0.00000000E+00  0.00000000E+00  0.00000000E+00
  0.00000000E+00  0.00000000E+00  0.00000000E+00
  0.00000000E+00  0.00000000E+00  0.00000000E+00
  0.00000000E+00  0.00000000E+00  0.00000000E+00
  0.00000000E+00  0.00000000E+00  0.00000000E+00
  0.00000000E+00  0.00000000E+00  0.00000000E+00
  0.00000000E+00  0.00000000E+00  0.00000000E+00
  0.00000000E+00  0.00000000E+00  0.00000000E+00
  0.00000000E+00  0.00000000E+00  0.00000000E+00
  0.00000000E+00  0.00000000E+00  0.00000000E+00
  0.00000000E+00  0.00000000E+00  0.00000000E+00
  0.00000000E+00  0.00000000E+00  0.00000000E+00
  0.00000000E+00  0.00000000E+00  0.00000000E+00
  0.00000000E+00  0.00000000E+00  0.00000000E+00
  0.00000000E+00  0.00000000E+00  0.00000000E+00
  0.00000000E+00  0.00000000E+00  0.00000000E+00
  0.00000000E+00  0.00000000E+00  0.00000000E+00
  0.00000000E+00  0.00000000E+00  0.00000000E+00
  0.00000000E+00  0.00000000E+00  0.00000000E+00
  0.00000000E+00  0.00000000E+00  0.00000000E+00
  0.00000000E+00  0.00000000E+00  0.00000000E+00
  0.00000000E+00  0.00000000E+00  0.00000000E+00
  0.00000000E+00  0.00000000E+00  0.00000000E+00
  0.00000000E+00  0.00000000E+00  0.00000000E+00
  0.00000000E+00  0.00000000E+00  0.00000000E+00
  0.00000000E+00  0.00000000E+00  0.00000000E+00
  0.00000000E+00  0.00000000E+00  0.00000000E+00
  0.00000000E+00  0.00000000E+00  0.00000000E+00
  0.00000000E+00  0.00000000E+00  0.00000000E+00
  0.00000000E+00  0.00000000E+00  0.00000000E+00
  0.00000000E+00  0.00000000E+00  0.00000000E+00
  0.00000000E+00  0.00000000E+00  0.00000000E+00
  0.00000000E+00  0.00000000E+00  0.00000000E+00
  0.00000000E+00  0.00000000E+00  0.00000000E+00
  0.00000000E+00  0.00000000E+00  0.00000000E+00
  0.00000000E+00  0.00000000E+00  0.00000000E+00
  0.00000000E+00  0.00000000E+00  0.00000000E+00
  0.00000000E+00  0.00000000E+00  0.00000000E+00
  0.00000000E+00  0.00000000E+00  0.00000000E+00
  0.00000000E+00  0.00000000E+00  0.00000000E+00
  0.00000000E+00  0.00000000E+00  0.00000000E+00
  0.00000000E+00  0.00000000E+00  0.00000000E+00
