CoH_5	                                  
   1.00000000000000     
    17.3787312141430164    0.0010718120096714   -0.0153828563110503
     0.0017348393582001   30.1828619111485459    2.9647216278250221
    -0.0057627796809588    0.6214426912120489    6.0322955240786396
   C    Co   H    N    O 
    80     4    32    24    16
Direct
  0.8655410391613501  0.9632471060197503  0.1319640782199656
  0.9359642321626254  0.9758283603982747  0.4222793402485010
  0.8662890534587291  0.8168698486344539  0.9214214225146975
  0.6342952976569549  0.4633112192387614  0.6305598634769112
  0.5628257744461536  0.3043477151593095  0.1304731830382480
  0.0631301789674694  0.8043150634014040  0.1328356684414018
  0.5638509900883975  0.4759907103789303  0.9199390865283448
  0.6334608920901132  0.3168490173387752  0.4205517297698194
  0.4362602019256698  0.4760289367880617  0.4193831235915582
  0.1337404932976156  0.8168732077767302  0.4228897527696560
  0.0636238096360984  0.9759916384381384  0.9217593136509095
  0.4367488303548654  0.3043395779063758  0.6305652104897419
  0.9371033662446848  0.8042059382343041  0.6326833277792829
  0.1342046078232002  0.9632758707015228  0.6327113861999791
  0.3661526492688196  0.3170877719858964  0.9195310519018065
  0.3657747412224452  0.4635729363453223  0.1289320760074588
  0.7905220279700558  0.0378748167119980  0.4572050782803387
  0.8538674985886203  0.0710287758761297  0.0887315892901483
  0.8554722078258479  0.7088418613755110  0.9661806530354440
  0.6460541665315702  0.5711070695056932  0.5870906313137425
  0.6441307394309632  0.2088161220957758  0.4649300544314059
  0.2079592745857752  0.7421682587994951  0.0977639787920168
  0.7093191133850851  0.5379345377699210  0.9563292404146182
  0.7073451405788731  0.2418649363452019  0.0962080612745950
  0.2911811084625455  0.5380743529955865  0.4552099000682546
  0.1450756781676432  0.7089021638034581  0.4667657175366031
  0.1455267750240949  0.0711525632519496  0.5881576041127232
  0.3550760831095658  0.2090761531547898  0.9655345199940157
  0.7923753297782312  0.7419172372470939  0.5965392606948257
  0.2088564284321919  0.0381101944568272  0.9574839607583954
  0.2920689176827480  0.2419969225376590  0.5955140188328514
  0.3542259122147016  0.5714161209174478  0.0865867554171444
  0.7529420521595682  0.0818694823228796  0.4544017247583341
  0.8164937866319661  0.1146681968257681  0.0958572693900308
  0.8180889843220172  0.6651993012182160  0.9587604190019547
  0.6834678345460290  0.6147175932256488  0.5945214527774993
  0.6816435797566740  0.1651789142902800  0.4581770005220420
  0.2455700932423213  0.6982248080103091  0.0998384217260835
  0.7469219013899533  0.5819086464271308  0.9539283335464361
  0.7451535948014723  0.1979298788066686  0.0994882198644049
  0.2535047034430704  0.5820136050408422  0.4530474665601147
  0.1823558551021804  0.6652668629944429  0.4587366669821051
  0.1829876253820402  0.1147783753454732  0.5950847150755294
  0.3176842789464942  0.1654127001774768  0.9585655243648930
  0.7546841681912255  0.6979732759528829  0.5991425035036855
  0.2464935228483753  0.0820863477413667  0.9545995848480686
  0.2543451970781234  0.1980420048322671  0.5986944166137178
  0.3167949116185866  0.6150069068762463  0.0943504479211015
  0.7037218899079321  0.0867618567494475  0.6283663432084978
  0.8299636236665506  0.1515812354166641  0.9237841724108264
  0.8314920783253896  0.6282832261278131  0.1310549222434148
  0.6700041039574884  0.6516321355352943  0.4222849655028824
  0.6682013543281045  0.1282628348249659  0.6302708915816950
  0.2946940747910389  0.6934754078561625  0.9254507712535371
  0.7960423450172627  0.5867866559854775  0.1286398434902125
  0.7944081563270089  0.1930735073943879  0.9255595971780224
  0.2045094600278574  0.5868022132415902  0.6276916124809802
  0.1690713883567270  0.6282819527241301  0.6305637410849911
  0.1694923470593537  0.1516523683465252  0.4226272334995116
  0.3309989338373072  0.1285618049904897  0.1312878619612476
  0.7054917742221249  0.6931198260065514  0.4245635839433177
  0.2955654668538088  0.0870419993080915  0.1292667845201976
  0.2050926355140135  0.1931343952962266  0.4243558009781552
  0.3302111079325059  0.6520123879450495  0.9227665998599619
  0.8770435137328931  0.9937488442125968  0.2743031047028666
  0.8783954240501259  0.7861768904516566  0.7804865616598704
  0.6227645015260350  0.4938620343278686  0.7725578743180819
  0.6214010932935423  0.2862105762521097  0.2792147828077205
  0.1218068199925995  0.7862559599822561  0.2813982076905717
  0.3774754989885096  0.4940672651878586  0.2712054057865956
  0.1224673261521545  0.9939029842944009  0.7741600946485789
  0.3781343310928023  0.2863446998714139  0.7788214304921866
  0.7671349593899635  0.1188432586949375  0.2761214559406255
  0.7688014174173148  0.6610235346079563  0.7777999465268124
  0.7327769606060954  0.6188809854889996  0.7754159517715493
  0.7310465519838729  0.1609920401641105  0.2779986588151147
  0.2314930040627772  0.6611809080925468  0.2778218188634298
  0.2675161647644231  0.6190555843671035  0.2749896996007450
  0.2323763998846076  0.1189972891717517  0.7757297304657769
  0.2684331295215827  0.1611500804718702  0.7776675611880464
  0.9708591387704857  0.8902197095914985  0.0267358979459971
  0.0291126803994075  0.8901637270522542  0.5272005050442914
  0.5289810301520674  0.3902761775304242  0.5247223548648066
  0.4707546283265032  0.3903953274842138  0.0242613719737079
  0.3690622292689909  0.1328866355663152  0.2684507826897757
  0.8059448523180919  0.5577111024245625  0.2634881862789484
  0.8042964056373734  0.2221567630673249  0.7908642823315262
  0.6937718448338046  0.0576842112924396  0.7630260254069086
  0.6955970528588225  0.7222049371237205  0.2897649844111783
  0.6317832746298677  0.6473667738522551  0.2853763991203024
  0.1310651610570801  0.6324795950583990  0.7677004481544643
  0.1311495203127393  0.1473741428982933  0.2859790346769842
  0.8696669602860112  0.6325319503321225  0.2681224061547027
  0.1951958135121856  0.2221859026823552  0.2893744826530877
  0.1947487238376766  0.5576829058244002  0.7622696431421545
  0.3045691083746220  0.7226330266859264  0.7912267731737401
  0.3684512119015011  0.6478348635893170  0.7861084836122814
  0.6299227577586350  0.1325152498726183  0.7667277273501227
  0.8682177442849337  0.1473105312782650  0.7873208949639618
  0.3054082881835853  0.0580169350956581  0.2644616007510834
  0.5378583802482240  0.4891217557432483  0.0561268653953420
  0.4628825982888856  0.2911134658620327  0.4948536084634796
  0.3277024463354650  0.4656160471950699  0.9849707511492767
  0.1717909000744200  0.8148583692293769  0.5668912064629055
  0.0375417176237249  0.9891604220818522  0.0577079624100136
  0.3280889453992231  0.3151848448510961  0.0630168216149514
  0.8274447981173481  0.9652280980591925  0.9880890003253953
  0.9633528249912686  0.7910154578890811  0.4970419458838293
  0.1723607136424050  0.9652000538401921  0.4894197423253601
  0.6723991296877685  0.4652455780106308  0.4871230290377682
  0.5367049439398954  0.2912343051552284  0.9941618394326994
  0.9619213312102559  0.9889212348380667  0.5588830839566299
  0.6715108395535268  0.3148091315482660  0.5645615156420476
  0.4622676499634295  0.4890696736693840  0.5560691643452245
  0.0370061481017387  0.7911614206745625  0.9966520898367079
  0.8281478348592088  0.8148988186208257  0.0647947820155963
  0.9148359056116888  0.9285822833359774  0.1946450471531946
  0.9581376867713303  0.9364862974845067  0.3714274374752122
  0.9150309708376767  0.8517502433346351  0.8581239880521991
  0.5850353909874570  0.4286578782141319  0.6929518750700723
  0.5413762132616853  0.3439284757714987  0.1800017313816156
  0.0415389546516565  0.8438555160006160  0.1825161775168738
  0.5417257428830737  0.4366279218258455  0.8691310230338445
  0.5847929298029442  0.3517888007713239  0.3566375672979305
  0.4581756452700674  0.4366290500847470  0.3687394554719603
  0.0849489628942024  0.8517518330933456  0.3591049762072984
  0.0417056169740704  0.9365469195274372  0.8714605962867594
  0.4582824753924086  0.3439413856307851  0.6797981563156696
  0.9585482542688339  0.8437897251895166  0.6823121245991217
  0.0850986003780818  0.9285618250667014  0.6954431391130100
  0.4148795104265020  0.3519554949384442  0.8557082561108160
  0.4148315056325913  0.4287975104617487  0.1919011130013359
  0.8384196580899754  0.0352140138436710  0.2716435807385551
  0.8400327224370798  0.7446340275224870  0.7830092161837783
  0.6614239853377200  0.5352973025935910  0.7702721512362629
  0.6597128778423453  0.2446302360527284  0.2821626337920051
  0.1602734161412940  0.7447509474189715  0.2838612535984097
  0.3388825687419015  0.5355154377018820  0.2691282099728554
  0.1610061781841736  0.0353914506013524  0.7714434421458520
  0.3397421479916076  0.2447940727631703  0.7818547996145426
  0.7808619651635027  0.0051299622069649  0.6102052796730533
  0.8960645174180684  0.0656736921447774  0.9338581821752570
  0.8977186029019393  0.7141881424312615  0.1213948989165559
  0.6038554839551651  0.5657732179576698  0.4317540325683638
  0.6016915976896087  0.2141487226997967  0.6193078150299201
  0.2173970454628034  0.7749521451927066  0.9448480187319106
  0.7189269834585730  0.5051935986670415  0.1095084353313851
  0.7165948389796171  0.2744972615166503  0.9423426247917703
  0.2817817694563161  0.5052937603682253  0.6081967140567883
  0.1031272111721506  0.7142039847832535  0.6222761363904681
  0.1032260520189041  0.0657745069256563  0.4331310333643472
  0.3972231468515659  0.2145002396901603  0.1208031380458081
  0.7830263744296886  0.7745919434063282  0.4428539246584009
  0.2183686641362357  0.0054291339289989  0.1110514739959498
  0.2827389496110868  0.2746027193070049  0.4414354500858195
  0.3964282678868685  0.5661703028314164  0.9315216944479587
 
  0.00000000E+00  0.00000000E+00  0.00000000E+00
  0.00000000E+00  0.00000000E+00  0.00000000E+00
  0.00000000E+00  0.00000000E+00  0.00000000E+00
  0.00000000E+00  0.00000000E+00  0.00000000E+00
  0.00000000E+00  0.00000000E+00  0.00000000E+00
  0.00000000E+00  0.00000000E+00  0.00000000E+00
  0.00000000E+00  0.00000000E+00  0.00000000E+00
  0.00000000E+00  0.00000000E+00  0.00000000E+00
  0.00000000E+00  0.00000000E+00  0.00000000E+00
  0.00000000E+00  0.00000000E+00  0.00000000E+00
  0.00000000E+00  0.00000000E+00  0.00000000E+00
  0.00000000E+00  0.00000000E+00  0.00000000E+00
  0.00000000E+00  0.00000000E+00  0.00000000E+00
  0.00000000E+00  0.00000000E+00  0.00000000E+00
  0.00000000E+00  0.00000000E+00  0.00000000E+00
  0.00000000E+00  0.00000000E+00  0.00000000E+00
  0.00000000E+00  0.00000000E+00  0.00000000E+00
  0.00000000E+00  0.00000000E+00  0.00000000E+00
  0.00000000E+00  0.00000000E+00  0.00000000E+00
  0.00000000E+00  0.00000000E+00  0.00000000E+00
  0.00000000E+00  0.00000000E+00  0.00000000E+00
  0.00000000E+00  0.00000000E+00  0.00000000E+00
  0.00000000E+00  0.00000000E+00  0.00000000E+00
  0.00000000E+00  0.00000000E+00  0.00000000E+00
  0.00000000E+00  0.00000000E+00  0.00000000E+00
  0.00000000E+00  0.00000000E+00  0.00000000E+00
  0.00000000E+00  0.00000000E+00  0.00000000E+00
  0.00000000E+00  0.00000000E+00  0.00000000E+00
  0.00000000E+00  0.00000000E+00  0.00000000E+00
  0.00000000E+00  0.00000000E+00  0.00000000E+00
  0.00000000E+00  0.00000000E+00  0.00000000E+00
  0.00000000E+00  0.00000000E+00  0.00000000E+00
  0.00000000E+00  0.00000000E+00  0.00000000E+00
  0.00000000E+00  0.00000000E+00  0.00000000E+00
  0.00000000E+00  0.00000000E+00  0.00000000E+00
  0.00000000E+00  0.00000000E+00  0.00000000E+00
  0.00000000E+00  0.00000000E+00  0.00000000E+00
  0.00000000E+00  0.00000000E+00  0.00000000E+00
  0.00000000E+00  0.00000000E+00  0.00000000E+00
  0.00000000E+00  0.00000000E+00  0.00000000E+00
  0.00000000E+00  0.00000000E+00  0.00000000E+00
  0.00000000E+00  0.00000000E+00  0.00000000E+00
  0.00000000E+00  0.00000000E+00  0.00000000E+00
  0.00000000E+00  0.00000000E+00  0.00000000E+00
  0.00000000E+00  0.00000000E+00  0.00000000E+00
  0.00000000E+00  0.00000000E+00  0.00000000E+00
  0.00000000E+00  0.00000000E+00  0.00000000E+00
  0.00000000E+00  0.00000000E+00  0.00000000E+00
  0.00000000E+00  0.00000000E+00  0.00000000E+00
  0.00000000E+00  0.00000000E+00  0.00000000E+00
  0.00000000E+00  0.00000000E+00  0.00000000E+00
  0.00000000E+00  0.00000000E+00  0.00000000E+00
  0.00000000E+00  0.00000000E+00  0.00000000E+00
  0.00000000E+00  0.00000000E+00  0.00000000E+00
  0.00000000E+00  0.00000000E+00  0.00000000E+00
  0.00000000E+00  0.00000000E+00  0.00000000E+00
  0.00000000E+00  0.00000000E+00  0.00000000E+00
  0.00000000E+00  0.00000000E+00  0.00000000E+00
  0.00000000E+00  0.00000000E+00  0.00000000E+00
  0.00000000E+00  0.00000000E+00  0.00000000E+00
  0.00000000E+00  0.00000000E+00  0.00000000E+00
  0.00000000E+00  0.00000000E+00  0.00000000E+00
  0.00000000E+00  0.00000000E+00  0.00000000E+00
  0.00000000E+00  0.00000000E+00  0.00000000E+00
  0.00000000E+00  0.00000000E+00  0.00000000E+00
  0.00000000E+00  0.00000000E+00  0.00000000E+00
  0.00000000E+00  0.00000000E+00  0.00000000E+00
  0.00000000E+00  0.00000000E+00  0.00000000E+00
  0.00000000E+00  0.00000000E+00  0.00000000E+00
  0.00000000E+00  0.00000000E+00  0.00000000E+00
  0.00000000E+00  0.00000000E+00  0.00000000E+00
  0.00000000E+00  0.00000000E+00  0.00000000E+00
  0.00000000E+00  0.00000000E+00  0.00000000E+00
  0.00000000E+00  0.00000000E+00  0.00000000E+00
  0.00000000E+00  0.00000000E+00  0.00000000E+00
  0.00000000E+00  0.00000000E+00  0.00000000E+00
  0.00000000E+00  0.00000000E+00  0.00000000E+00
  0.00000000E+00  0.00000000E+00  0.00000000E+00
  0.00000000E+00  0.00000000E+00  0.00000000E+00
  0.00000000E+00  0.00000000E+00  0.00000000E+00
  0.00000000E+00  0.00000000E+00  0.00000000E+00
  0.00000000E+00  0.00000000E+00  0.00000000E+00
  0.00000000E+00  0.00000000E+00  0.00000000E+00
  0.00000000E+00  0.00000000E+00  0.00000000E+00
  0.00000000E+00  0.00000000E+00  0.00000000E+00
  0.00000000E+00  0.00000000E+00  0.00000000E+00
  0.00000000E+00  0.00000000E+00  0.00000000E+00
  0.00000000E+00  0.00000000E+00  0.00000000E+00
  0.00000000E+00  0.00000000E+00  0.00000000E+00
  0.00000000E+00  0.00000000E+00  0.00000000E+00
  0.00000000E+00  0.00000000E+00  0.00000000E+00
  0.00000000E+00  0.00000000E+00  0.00000000E+00
  0.00000000E+00  0.00000000E+00  0.00000000E+00
  0.00000000E+00  0.00000000E+00  0.00000000E+00
  0.00000000E+00  0.00000000E+00  0.00000000E+00
  0.00000000E+00  0.00000000E+00  0.00000000E+00
  0.00000000E+00  0.00000000E+00  0.00000000E+00
  0.00000000E+00  0.00000000E+00  0.00000000E+00
  0.00000000E+00  0.00000000E+00  0.00000000E+00
  0.00000000E+00  0.00000000E+00  0.00000000E+00
  0.00000000E+00  0.00000000E+00  0.00000000E+00
  0.00000000E+00  0.00000000E+00  0.00000000E+00
  0.00000000E+00  0.00000000E+00  0.00000000E+00
  0.00000000E+00  0.00000000E+00  0.00000000E+00
  0.00000000E+00  0.00000000E+00  0.00000000E+00
  0.00000000E+00  0.00000000E+00  0.00000000E+00
  0.00000000E+00  0.00000000E+00  0.00000000E+00
  0.00000000E+00  0.00000000E+00  0.00000000E+00
  0.00000000E+00  0.00000000E+00  0.00000000E+00
  0.00000000E+00  0.00000000E+00  0.00000000E+00
  0.00000000E+00  0.00000000E+00  0.00000000E+00
  0.00000000E+00  0.00000000E+00  0.00000000E+00
  0.00000000E+00  0.00000000E+00  0.00000000E+00
  0.00000000E+00  0.00000000E+00  0.00000000E+00
  0.00000000E+00  0.00000000E+00  0.00000000E+00
  0.00000000E+00  0.00000000E+00  0.00000000E+00
  0.00000000E+00  0.00000000E+00  0.00000000E+00
  0.00000000E+00  0.00000000E+00  0.00000000E+00
  0.00000000E+00  0.00000000E+00  0.00000000E+00
  0.00000000E+00  0.00000000E+00  0.00000000E+00
  0.00000000E+00  0.00000000E+00  0.00000000E+00
  0.00000000E+00  0.00000000E+00  0.00000000E+00
  0.00000000E+00  0.00000000E+00  0.00000000E+00
  0.00000000E+00  0.00000000E+00  0.00000000E+00
  0.00000000E+00  0.00000000E+00  0.00000000E+00
  0.00000000E+00  0.00000000E+00  0.00000000E+00
  0.00000000E+00  0.00000000E+00  0.00000000E+00
  0.00000000E+00  0.00000000E+00  0.00000000E+00
  0.00000000E+00  0.00000000E+00  0.00000000E+00
  0.00000000E+00  0.00000000E+00  0.00000000E+00
  0.00000000E+00  0.00000000E+00  0.00000000E+00
  0.00000000E+00  0.00000000E+00  0.00000000E+00
  0.00000000E+00  0.00000000E+00  0.00000000E+00
  0.00000000E+00  0.00000000E+00  0.00000000E+00
  0.00000000E+00  0.00000000E+00  0.00000000E+00
  0.00000000E+00  0.00000000E+00  0.00000000E+00
  0.00000000E+00  0.00000000E+00  0.00000000E+00
  0.00000000E+00  0.00000000E+00  0.00000000E+00
  0.00000000E+00  0.00000000E+00  0.00000000E+00
  0.00000000E+00  0.00000000E+00  0.00000000E+00
  0.00000000E+00  0.00000000E+00  0.00000000E+00
  0.00000000E+00  0.00000000E+00  0.00000000E+00
  0.00000000E+00  0.00000000E+00  0.00000000E+00
  0.00000000E+00  0.00000000E+00  0.00000000E+00
  0.00000000E+00  0.00000000E+00  0.00000000E+00
  0.00000000E+00  0.00000000E+00  0.00000000E+00
  0.00000000E+00  0.00000000E+00  0.00000000E+00
  0.00000000E+00  0.00000000E+00  0.00000000E+00
  0.00000000E+00  0.00000000E+00  0.00000000E+00
  0.00000000E+00  0.00000000E+00  0.00000000E+00
  0.00000000E+00  0.00000000E+00  0.00000000E+00
  0.00000000E+00  0.00000000E+00  0.00000000E+00
  0.00000000E+00  0.00000000E+00  0.00000000E+00
  0.00000000E+00  0.00000000E+00  0.00000000E+00
  0.00000000E+00  0.00000000E+00  0.00000000E+00
  0.00000000E+00  0.00000000E+00  0.00000000E+00
