FeH_exp1                                
   1.00000000000000     
    24.8846366110918069    0.0019936527022555   -0.0034024016448863
    -0.0006463503064506   24.8281615390975183    1.8621850313581196
    -0.0000900004333780   -0.1219667656908486    7.3175695287639737
   C    Fe   H    N    O 
    80     4    32    24    16
Direct
  0.9112085211250971  0.9716878667312656  0.1024026714703155
  0.9216442277938199  0.9768039388472900  0.4024930679919052
  0.9110385812335338  0.8094380758888704  0.9072927485242275
  0.5886862216727593  0.4718193107050226  0.6033755651864539
  0.5785159377425728  0.3039914456816533  0.1078989161240642
  0.0782693987718872  0.8038049040058226  0.1071305020750657
  0.5781333089065939  0.4769463829470837  0.9033703393050985
  0.5890782889100166  0.3094576076442408  0.4077462103878844
  0.4215238387679605  0.4767016674258500  0.4028518501483447
  0.0886285599842083  0.8089652998294312  0.4072139768312439
  0.0784225906332523  0.9767584072899567  0.9021858486525360
  0.4218867359911656  0.3037096122392171  0.6073360518951034
  0.9214531135182042  0.8039959392933440  0.6073452458113948
  0.0888802836430713  0.9714611174613381  0.6021919450373119
  0.4114029092130451  0.3087982373266485  0.9073545457800876
  0.4110504876547481  0.4714347449084570  0.1028871016552344
  0.8188652908180529  0.0417558721779372  0.4126059918122564
  0.8459745243867332  0.0748208488135020  0.0947716172811610
  0.8453950341805410  0.7066040717815838  0.9161323909392962
  0.6538097631799715  0.5750437693204944  0.5956254850078579
  0.6546526192524382  0.2064968493599579  0.4162264321474822
  0.1810693212345811  0.7389079067344895  0.0974329614251346
  0.6808507127406500  0.5421477973291360  0.9136948002083471
  0.6816079367376631  0.2394271294828485  0.0980543529275408
  0.3185816931785652  0.5415166284764794  0.4127479623239552
  0.1540024821372867  0.7059421556513144  0.4154549990600600
  0.1543438027990547  0.0744596405191942  0.5941375543753367
  0.3461659396658305  0.2056398481629600  0.9150127784951465
  0.8183976675108866  0.7394522714953240  0.5978692823582037
  0.1813722542514213  0.0414388085863351  0.9121390453883436
  0.3191678539440801  0.2386092256979708  0.5969156984067894
  0.3456517680147044  0.5745191775297656  0.0948216207074211
  0.7773144088598158  0.0843919555612231  0.4102049271594552
  0.8035472218104616  0.1164531462746652  0.0989673288309092
  0.8029299860512822  0.6650064272412024  0.9120855252491324
  0.6962977521684621  0.6166366421020513  0.5996019480495036
  0.6970825066050779  0.1648632841568727  0.4119390643994194
  0.2227244615244786  0.6963753617378217  0.1000903826486947
  0.7225262273158748  0.5846854629032094  0.9109167407626160
  0.7232512462192489  0.1968697513233195  0.1005523068385799
  0.2769296412808160  0.5840694176864005  0.4101296594849657
  0.1965117898493673  0.6643838931788721  0.4114359308874072
  0.1969248412387969  0.1159426761856963  0.5981663379006008
  0.3036198600588236  0.1641114468983815  0.9108724048156134
  0.7767066055511620  0.6969433220908812  0.6006227591700011
  0.2230826791822977  0.0839176011233960  0.9095341064213045
  0.2774654861492820  0.1961110517869642  0.5994960853645779
  0.3031393413169070  0.6160781651805038  0.0988681683322667
  0.7444370470636912  0.0891617222548078  0.5627428350209129
  0.7960268107584980  0.1522610369194339  0.9473297404707068
  0.7953881018623434  0.6292540104654236  0.0638553325532172
  0.7038265131704335  0.6523802687677147  0.4477981299494331
  0.7046205172527067  0.1290513468784624  0.5635520703679546
  0.2556594812834589  0.6916341550932970  0.9476705242067567
  0.7554772455378540  0.5894459584186009  0.0633221383390818
  0.7561570599938179  0.1921043425104898  0.9480517316672490
  0.2439954462783192  0.5888175498563513  0.5625441445588493
  0.2040817550557819  0.6286180821334284  0.5631562277148774
  0.2045154766048753  0.1517085886003713  0.4464612514856157
  0.2959706523451828  0.1283818464136175  0.0626366097183748
  0.7437482295378572  0.6921782027484795  0.4482187182558945
  0.2559956493007505  0.0886440738826337  0.0620434597604813
  0.2445031415005374  0.1914328591995655  0.4470620353321308
  0.2955793878470629  0.6518418881981702  0.9471377201324103
  0.8920090249233681  0.9986863254034333  0.2525754191456926
  0.8917437491718090  0.7823584484961899  0.7574305224910987
  0.6077862813616832  0.4988821648343560  0.7535632975805697
  0.6083080074843892  0.2823541110924808  0.2578554732195357
  0.1078669457322263  0.7819364972213165  0.2571899539134321
  0.3918242988130487  0.4984876432884562  0.2529047834712372
  0.1081076435678270  0.9985079028280808  0.7522056807730024
  0.3922626826158577  0.2817577073527033  0.7571590124591907
  0.7705456781198663  0.1203376288779836  0.2549880519510666
  0.7699081021729981  0.6610950076908324  0.7560904472862333
  0.7293380682383628  0.6205422653537482  0.7555234786383522
  0.7300486805159565  0.1609548960743439  0.2558477266407237
  0.2295391801694251  0.6605014246744929  0.2554686040223757
  0.2701106002562099  0.6199519837344809  0.2548070174101369
  0.2299685169442682  0.1197642949660889  0.7541507152351627
  0.2706010607601002  0.1602546054161351  0.7548596948301878
  0.9962810713681023  0.8904010368006965  0.0047576678840642
  0.0036904529643138  0.8903088651451725  0.5047051041374715
  0.5037636303383479  0.3903982919153961  0.5054155731986683
  0.4962328985763094  0.3902694286594581  0.0053570251511275
  0.3217612153782241  0.1320915538344138  0.1815577127098820
  0.7494389075342980  0.5615408277354135  0.1818080475272836
  0.7501067839440267  0.2200302832927434  0.8296255528380527
  0.7504700890230751  0.0611714333169218  0.6810373310756077
  0.7498273654257304  0.7200696557041155  0.3296937069665589
  0.6779999703246773  0.6486231352790384  0.3289915274697037
  0.1782620702990840  0.6323509031072447  0.6819850012640316
  0.1786490388846076  0.1480277325931709  0.3276878663714768
  0.8212227998037420  0.6330233670282865  0.1826558421753646
  0.2505861806399849  0.2193474382953298  0.3286303964551038
  0.2500533717569127  0.5609020277405534  0.6809913971053163
  0.2495780365223439  0.7195586247967327  0.8292332915594116
  0.3213970409351674  0.6481241260497796  0.8283163196506251
  0.6788645425266964  0.1328055511117796  0.6824928199692835
  0.8218327730827610  0.1485074845934449  0.8284721249612019
  0.2498501598523148  0.0607522199679238  0.1805198142884308
  0.5802223144101717  0.4859099676944183  0.0462114252325208
  0.4197935503970101  0.2947468206101362  0.4644998758663021
  0.3995769590617826  0.4760725376752717  0.9600743104123097
  0.1000653200616028  0.8042262559578646  0.5500496121202616
  0.0806218881011560  0.9858201754560909  0.0449354835394544
  0.3999370846797277  0.3040495957121649  0.0501388765297435
  0.8997232736555461  0.9764527509792771  0.9595950685770021
  0.9192524106649742  0.7948769140660161  0.4646601980392191
  0.1003760945081353  0.9761293264817610  0.4594122421294387
  0.6001714995564527  0.4765507440890602  0.4606012253511409
  0.5806217840207921  0.2948984214388162  0.9651761538134167
  0.9194515123616398  0.9857768755616405  0.5453161792233701
  0.6006111650526194  0.3049381288045581  0.5505210597655648
  0.4193898920712584  0.4857271015332145  0.5456336239525967
  0.0804662783358125  0.7947916474411514  0.9643340235010740
  0.8995278777779561  0.8048658753283533  0.0500811751458201
  0.9496245347774916  0.9361792840815895  0.1592996880879767
  0.9560570373734549  0.9393754036601507  0.3454482405303878
  0.9495595345839050  0.8447657799991859  0.8500795662998044
  0.5503237024867218  0.4362521435537374  0.6601247944131146
  0.5440226926016223  0.3413805208950009  0.1646954761601975
  0.0438599776817981  0.8412646472641967  0.1639771801524290
  0.5438350628656323  0.4394319127559143  0.8462027489446555
  0.5505214769337954  0.3447723867000860  0.3506980777101560
  0.4559664391736789  0.4392828369519677  0.3459717462314629
  0.0502452883845237  0.8444816573057210  0.3501290907260994
  0.0439623252046815  0.9393468667799922  0.8453289527620100
  0.4562032627149293  0.3412074498113711  0.6644703263098606
  0.9559874946795333  0.8413722649719872  0.6640208983234075
  0.0504031352096135  0.9360456790102916  0.6592271376824783
  0.4497481323674961  0.3443754245941761  0.8505510629206015
  0.4495185425679864  0.4360043009301151  0.1598934257947633
  0.8515412313352186  0.0391788908535062  0.2532715151435241
  0.8511351016578175  0.7420081283210465  0.7571230728101952
  0.6482273762762318  0.5394285534289125  0.7542531963281505
  0.6489105298390143  0.2419756550503536  0.2573865580023238
  0.1483663173550553  0.7414779129121314  0.2566948582918940
  0.3512823357337140  0.5389286657791601  0.2534436719936650
  0.1486790830794007  0.0388971504500333  0.7527878727259036
  0.3518030132472774  0.2412382873295371  0.7563966634901647
  0.8253434475140011  0.0098065876613731  0.5452982639333399
  0.8752700788409626  0.0706799482456333  0.9610152095037563
  0.8745844524791266  0.7109174871362995  0.0500864271961987
  0.6244792743088539  0.5709222866025812  0.4619300788788507
  0.6254921756718304  0.2107584490192380  0.5502531159113744
  0.1745245073592656  0.7707963548605790  0.9646099666088475
  0.6742530096914905  0.5103916287013419  0.0468171687016223
  0.6750465160352093  0.2713375096565969  0.9653195281484415
  0.3251199466622197  0.5096395900435624  0.5455851739376101
  0.1247012131594971  0.7101134880972282  0.5491893333452467
  0.1249997849896829  0.0703772820912150  0.4604346141189950
  0.3754801232061453  0.2097281920804619  0.0487815090087409
  0.8249582939912585  0.7713272471314170  0.4650326251353860
  0.1747738430569754  0.0095777975654627  0.0449742823994868
  0.3257767900570414  0.2704393099928808  0.4639988206255197
  0.3749602325883785  0.5704002574076839  0.9610760083015251
 
  0.00000000E+00  0.00000000E+00  0.00000000E+00
  0.00000000E+00  0.00000000E+00  0.00000000E+00
  0.00000000E+00  0.00000000E+00  0.00000000E+00
  0.00000000E+00  0.00000000E+00  0.00000000E+00
  0.00000000E+00  0.00000000E+00  0.00000000E+00
  0.00000000E+00  0.00000000E+00  0.00000000E+00
  0.00000000E+00  0.00000000E+00  0.00000000E+00
  0.00000000E+00  0.00000000E+00  0.00000000E+00
  0.00000000E+00  0.00000000E+00  0.00000000E+00
  0.00000000E+00  0.00000000E+00  0.00000000E+00
  0.00000000E+00  0.00000000E+00  0.00000000E+00
  0.00000000E+00  0.00000000E+00  0.00000000E+00
  0.00000000E+00  0.00000000E+00  0.00000000E+00
  0.00000000E+00  0.00000000E+00  0.00000000E+00
  0.00000000E+00  0.00000000E+00  0.00000000E+00
  0.00000000E+00  0.00000000E+00  0.00000000E+00
  0.00000000E+00  0.00000000E+00  0.00000000E+00
  0.00000000E+00  0.00000000E+00  0.00000000E+00
  0.00000000E+00  0.00000000E+00  0.00000000E+00
  0.00000000E+00  0.00000000E+00  0.00000000E+00
  0.00000000E+00  0.00000000E+00  0.00000000E+00
  0.00000000E+00  0.00000000E+00  0.00000000E+00
  0.00000000E+00  0.00000000E+00  0.00000000E+00
  0.00000000E+00  0.00000000E+00  0.00000000E+00
  0.00000000E+00  0.00000000E+00  0.00000000E+00
  0.00000000E+00  0.00000000E+00  0.00000000E+00
  0.00000000E+00  0.00000000E+00  0.00000000E+00
  0.00000000E+00  0.00000000E+00  0.00000000E+00
  0.00000000E+00  0.00000000E+00  0.00000000E+00
  0.00000000E+00  0.00000000E+00  0.00000000E+00
  0.00000000E+00  0.00000000E+00  0.00000000E+00
  0.00000000E+00  0.00000000E+00  0.00000000E+00
  0.00000000E+00  0.00000000E+00  0.00000000E+00
  0.00000000E+00  0.00000000E+00  0.00000000E+00
  0.00000000E+00  0.00000000E+00  0.00000000E+00
  0.00000000E+00  0.00000000E+00  0.00000000E+00
  0.00000000E+00  0.00000000E+00  0.00000000E+00
  0.00000000E+00  0.00000000E+00  0.00000000E+00
  0.00000000E+00  0.00000000E+00  0.00000000E+00
  0.00000000E+00  0.00000000E+00  0.00000000E+00
  0.00000000E+00  0.00000000E+00  0.00000000E+00
  0.00000000E+00  0.00000000E+00  0.00000000E+00
  0.00000000E+00  0.00000000E+00  0.00000000E+00
  0.00000000E+00  0.00000000E+00  0.00000000E+00
  0.00000000E+00  0.00000000E+00  0.00000000E+00
  0.00000000E+00  0.00000000E+00  0.00000000E+00
  0.00000000E+00  0.00000000E+00  0.00000000E+00
  0.00000000E+00  0.00000000E+00  0.00000000E+00
  0.00000000E+00  0.00000000E+00  0.00000000E+00
  0.00000000E+00  0.00000000E+00  0.00000000E+00
  0.00000000E+00  0.00000000E+00  0.00000000E+00
  0.00000000E+00  0.00000000E+00  0.00000000E+00
  0.00000000E+00  0.00000000E+00  0.00000000E+00
  0.00000000E+00  0.00000000E+00  0.00000000E+00
  0.00000000E+00  0.00000000E+00  0.00000000E+00
  0.00000000E+00  0.00000000E+00  0.00000000E+00
  0.00000000E+00  0.00000000E+00  0.00000000E+00
  0.00000000E+00  0.00000000E+00  0.00000000E+00
  0.00000000E+00  0.00000000E+00  0.00000000E+00
  0.00000000E+00  0.00000000E+00  0.00000000E+00
  0.00000000E+00  0.00000000E+00  0.00000000E+00
  0.00000000E+00  0.00000000E+00  0.00000000E+00
  0.00000000E+00  0.00000000E+00  0.00000000E+00
  0.00000000E+00  0.00000000E+00  0.00000000E+00
  0.00000000E+00  0.00000000E+00  0.00000000E+00
  0.00000000E+00  0.00000000E+00  0.00000000E+00
  0.00000000E+00  0.00000000E+00  0.00000000E+00
  0.00000000E+00  0.00000000E+00  0.00000000E+00
  0.00000000E+00  0.00000000E+00  0.00000000E+00
  0.00000000E+00  0.00000000E+00  0.00000000E+00
  0.00000000E+00  0.00000000E+00  0.00000000E+00
  0.00000000E+00  0.00000000E+00  0.00000000E+00
  0.00000000E+00  0.00000000E+00  0.00000000E+00
  0.00000000E+00  0.00000000E+00  0.00000000E+00
  0.00000000E+00  0.00000000E+00  0.00000000E+00
  0.00000000E+00  0.00000000E+00  0.00000000E+00
  0.00000000E+00  0.00000000E+00  0.00000000E+00
  0.00000000E+00  0.00000000E+00  0.00000000E+00
  0.00000000E+00  0.00000000E+00  0.00000000E+00
  0.00000000E+00  0.00000000E+00  0.00000000E+00
  0.00000000E+00  0.00000000E+00  0.00000000E+00
  0.00000000E+00  0.00000000E+00  0.00000000E+00
  0.00000000E+00  0.00000000E+00  0.00000000E+00
  0.00000000E+00  0.00000000E+00  0.00000000E+00
  0.00000000E+00  0.00000000E+00  0.00000000E+00
  0.00000000E+00  0.00000000E+00  0.00000000E+00
  0.00000000E+00  0.00000000E+00  0.00000000E+00
  0.00000000E+00  0.00000000E+00  0.00000000E+00
  0.00000000E+00  0.00000000E+00  0.00000000E+00
  0.00000000E+00  0.00000000E+00  0.00000000E+00
  0.00000000E+00  0.00000000E+00  0.00000000E+00
  0.00000000E+00  0.00000000E+00  0.00000000E+00
  0.00000000E+00  0.00000000E+00  0.00000000E+00
  0.00000000E+00  0.00000000E+00  0.00000000E+00
  0.00000000E+00  0.00000000E+00  0.00000000E+00
  0.00000000E+00  0.00000000E+00  0.00000000E+00
  0.00000000E+00  0.00000000E+00  0.00000000E+00
  0.00000000E+00  0.00000000E+00  0.00000000E+00
  0.00000000E+00  0.00000000E+00  0.00000000E+00
  0.00000000E+00  0.00000000E+00  0.00000000E+00
  0.00000000E+00  0.00000000E+00  0.00000000E+00
  0.00000000E+00  0.00000000E+00  0.00000000E+00
  0.00000000E+00  0.00000000E+00  0.00000000E+00
  0.00000000E+00  0.00000000E+00  0.00000000E+00
  0.00000000E+00  0.00000000E+00  0.00000000E+00
  0.00000000E+00  0.00000000E+00  0.00000000E+00
  0.00000000E+00  0.00000000E+00  0.00000000E+00
  0.00000000E+00  0.00000000E+00  0.00000000E+00
  0.00000000E+00  0.00000000E+00  0.00000000E+00
  0.00000000E+00  0.00000000E+00  0.00000000E+00
  0.00000000E+00  0.00000000E+00  0.00000000E+00
  0.00000000E+00  0.00000000E+00  0.00000000E+00
  0.00000000E+00  0.00000000E+00  0.00000000E+00
  0.00000000E+00  0.00000000E+00  0.00000000E+00
  0.00000000E+00  0.00000000E+00  0.00000000E+00
  0.00000000E+00  0.00000000E+00  0.00000000E+00
  0.00000000E+00  0.00000000E+00  0.00000000E+00
  0.00000000E+00  0.00000000E+00  0.00000000E+00
  0.00000000E+00  0.00000000E+00  0.00000000E+00
  0.00000000E+00  0.00000000E+00  0.00000000E+00
  0.00000000E+00  0.00000000E+00  0.00000000E+00
  0.00000000E+00  0.00000000E+00  0.00000000E+00
  0.00000000E+00  0.00000000E+00  0.00000000E+00
  0.00000000E+00  0.00000000E+00  0.00000000E+00
  0.00000000E+00  0.00000000E+00  0.00000000E+00
  0.00000000E+00  0.00000000E+00  0.00000000E+00
  0.00000000E+00  0.00000000E+00  0.00000000E+00
  0.00000000E+00  0.00000000E+00  0.00000000E+00
  0.00000000E+00  0.00000000E+00  0.00000000E+00
  0.00000000E+00  0.00000000E+00  0.00000000E+00
  0.00000000E+00  0.00000000E+00  0.00000000E+00
  0.00000000E+00  0.00000000E+00  0.00000000E+00
  0.00000000E+00  0.00000000E+00  0.00000000E+00
  0.00000000E+00  0.00000000E+00  0.00000000E+00
  0.00000000E+00  0.00000000E+00  0.00000000E+00
  0.00000000E+00  0.00000000E+00  0.00000000E+00
  0.00000000E+00  0.00000000E+00  0.00000000E+00
  0.00000000E+00  0.00000000E+00  0.00000000E+00
  0.00000000E+00  0.00000000E+00  0.00000000E+00
  0.00000000E+00  0.00000000E+00  0.00000000E+00
  0.00000000E+00  0.00000000E+00  0.00000000E+00
  0.00000000E+00  0.00000000E+00  0.00000000E+00
  0.00000000E+00  0.00000000E+00  0.00000000E+00
  0.00000000E+00  0.00000000E+00  0.00000000E+00
  0.00000000E+00  0.00000000E+00  0.00000000E+00
  0.00000000E+00  0.00000000E+00  0.00000000E+00
  0.00000000E+00  0.00000000E+00  0.00000000E+00
  0.00000000E+00  0.00000000E+00  0.00000000E+00
  0.00000000E+00  0.00000000E+00  0.00000000E+00
  0.00000000E+00  0.00000000E+00  0.00000000E+00
  0.00000000E+00  0.00000000E+00  0.00000000E+00
  0.00000000E+00  0.00000000E+00  0.00000000E+00
  0.00000000E+00  0.00000000E+00  0.00000000E+00
  0.00000000E+00  0.00000000E+00  0.00000000E+00
  0.00000000E+00  0.00000000E+00  0.00000000E+00
  0.00000000E+00  0.00000000E+00  0.00000000E+00
