 C Fe  H  N  O                          
   1.00000000000000     
    12.1081573693415869   -0.0014544893907563   -0.0032533316444146
    -0.0062160184874269   32.7481409680605324    1.8474046001141049
     0.0021017569326050    0.3751501107679226    5.5595500343883471
   C    Fe   H    N    O 
    80     4    32    24    16
Direct
  0.8199534080926298  0.9559630389897507  0.0950075547195368
  0.9102262110155408  0.9636895307092175  0.4366259402449444
  0.8148605575084531  0.8076145264680932  0.9111599630331852
  0.6806439080258997  0.4562141015385492  0.5917787283973865
  0.5947528845751719  0.2991619020299510  0.0676609216840589
  0.0898852814896998  0.7983363509041368  0.0712558809547303
  0.5903067139071254  0.4637814855659883  0.9335745908841133
  0.6848111812208160  0.3074115455550839  0.4087176742205116
  0.4056529289688271  0.4629447960969841  0.4349194207735465
  0.1802178234621792  0.8058980093883363  0.4130568352591055
  0.0949305814223749  0.9630043354658255  0.9373113729501412
  0.4102492487956866  0.2985128689821153  0.5680246833998979
  0.9050074467707034  0.7992274850077905  0.5703933454739882
  0.1848411752159720  0.9546852007168027  0.5961618142214391
  0.3198815046851848  0.3061707472871973  0.9096624336823922
  0.3157671255934318  0.4547250602379194  0.0936103557277477
  0.7403978701254914  0.0369315537957604  0.4317815920089245
  0.8598409479422529  0.0538996016024953  0.0634722108701240
  0.8513714168855557  0.7095962793862043  0.9431424036111906
  0.6402131309057140  0.5541549280804503  0.5619541149775102
  0.6473170041230603  0.2094124825074601  0.4406826749841244
  0.2594462294995594  0.7251084920850914  0.0745529594248424
  0.7595523760376963  0.5370990355880565  0.9302687384400770
  0.7669182480038543  0.2264823537978629  0.0727736350429424
  0.2335112800703811  0.5355003144260948  0.4310429514740264
  0.1400757942164361  0.7079379472312510  0.4427076442286051
  0.1479424794763204  0.0526651282709381  0.5630318322248655
  0.3599369325116868  0.2082650324972306  0.9404640618931026
  0.7319358210918594  0.7267480890940590  0.5751672111473951
  0.2669872064366601  0.0357089263548431  0.9317850519185171
  0.2405513300061060  0.2252087336643882  0.5722177557602635
  0.3522581741561623  0.5526979852674501  0.0618984116977472
  0.7150750189414623  0.0811600925973082  0.4261056688177902
  0.8365209412354631  0.0979828051193650  0.0719143341240098
  0.8280250599156815  0.6655527647102346  0.9339821210031403
  0.6630636172405033  0.5982389979730272  0.5717502970064459
  0.6707724400682693  0.1653617223754580  0.4321401279766661
  0.2845858285184377  0.6808981790290716  0.0789743310407047
  0.7844327363923043  0.5813356661094815  0.9259075130188208
  0.7922631816740164  0.1822389636378574  0.0781636377376174
  0.2077102130329394  0.5796958917724666  0.4256539878630292
  0.1632311615292750  0.6638823536027658  0.4330688752184173
  0.1713401299451078  0.0967316547387469  0.5713593139137458
  0.3368423463567112  0.1641848274125763  0.9315911422168384
  0.7066365024456829  0.6825039684956664  0.5800401431892652
  0.2926122861660971  0.0799431384383240  0.9256586868118646
  0.2154575589305665  0.1809661099523723  0.5774564834735898
  0.3287953776962951  0.5967239275567522  0.0711674124110786
  0.6435802742235737  0.0940810722917860  0.5976474271760992
  0.8858854227860036  0.1274063660875129  0.9038722082065505
  0.8773372192050459  0.6361292850892966  0.1019092564011999
  0.6134576037061166  0.6276994509091764  0.4044286796014873
  0.6215231820307920  0.1359676238048735  0.6004497458251805
  0.3560699002300112  0.6680725999251251  0.9071417459017397
  0.8556293358187972  0.5942390711798637  0.0980562364205966
  0.8638485295714418  0.1693018265833786  0.9068337769666073
  0.1361751811589613  0.5925251633693591  0.5973966808931408
  0.1139776986316079  0.6343934419869441  0.6008555426331412
  0.1219812430855285  0.1261091550225686  0.4032089197617950
  0.3862058163376361  0.1348042213497820  0.0997100099062891
  0.6351513032550642  0.6695994832361762  0.4084132532054738
  0.3641192478460766  0.0929100453655352  0.0970150877226246
  0.1439396272024567  0.1680083528395357  0.4060812985688571
  0.3780622438335115  0.6262037673597618  0.9033960223840225
  0.8420370950523051  0.9840845250154899  0.2584187455816220
  0.8353907536225762  0.7793584615127784  0.7476733728887623
  0.6584411756097239  0.4842707555621715  0.7554949245625409
  0.6639464079990987  0.2791768566905475  0.2452979183947903
  0.1580051504041862  0.7778487580785836  0.2492848286631570
  0.3363800972147999  0.4829178150842921  0.2574308668578027
  0.1641404031038505  0.9829512462643279  0.7594535561342681
  0.3419588978111179  0.2780884092300937  0.7460072384097671
  0.7648133233430841  0.1103581323746567  0.2504477340162126
  0.7565355791557948  0.6532336615938092  0.7549315539846830
  0.7345384215145998  0.6105746265522924  0.7508198580468886
  0.7424532899976128  0.1530081089369872  0.2535502498799858
  0.2348130418851184  0.6516132751701988  0.2540399559033730
  0.2572121469594464  0.6089828536509430  0.2502071728480999
  0.2429621473927170  0.1091264736724966  0.7499184129355498
  0.2652745046065235  0.1517832274571305  0.7529345143840658
  0.9634702400578306  0.8811654918287743  0.0036756776416524
  0.0371169282638846  0.8808980586530737  0.5044766723889467
  0.5373164446551399  0.3812521351942380  0.5005232512107227
  0.4636146086642228  0.3809807897962116  0.0011732995924660
  0.4412025762834375  0.1452189902073258  0.2345512994728907
  0.8930850000780808  0.5710251894673704  0.2301047525020223
  0.9013722285535195  0.1924821018734235  0.7745549741450759
  0.6062316933502672  0.0708971549583666  0.7301395042330796
  0.5975028047292810  0.6928044257059369  0.2765961302745339
  0.5585209593010063  0.6173498555265340  0.2692493091100374
  0.0589784781324383  0.6446923897443284  0.7360722415133623
  0.0668899238011065  0.1157009486255376  0.2685186056516855
  0.9321584570540367  0.6465006767610504  0.2372000652558981
  0.1064407378261976  0.1911728792665315  0.2737982922129802
  0.0989295249387112  0.5692840521911435  0.7296746883569440
  0.3935325724483931  0.6913262778757527  0.7752545030132865
  0.4331390106781470  0.6159045837805834  0.7683325028696544
  0.5665133988939104  0.1463585492264983  0.7353024761216744
  0.9409817365554076  0.1170375942854847  0.7690598242929383
  0.4014969250623324  0.0697524814685266  0.2295321397754932
  0.5538049873945852  0.4751750400743049  0.0900976929226260
  0.4467102164419003  0.2870793878891433  0.4115877599242879
  0.2677543858744258  0.4584617764648513  0.9275784033365824
  0.2281173089928927  0.8018268305655951  0.5791953286596438
  0.0589850923799489  0.9747274289496985  0.0934212980467422
  0.2719463133202495  0.3021552568649994  0.0758141366805205
  0.7720598404552277  0.9599398643286321  0.9288384885258125
  0.9409683374455824  0.7874946381225172  0.4143552354910724
  0.2328607475136693  0.9583789153259730  0.4301345117466582
  0.7284958918751485  0.4602809604278875  0.4255386229186655
  0.5586835129054819  0.2874729991619489  0.9115551508506030
  0.9466407046893863  0.9751464981631912  0.5930428170565705
  0.7328866009423507  0.3036982193048630  0.5746435156657412
  0.4415480678926471  0.4746100011278429  0.5912211508452785
  0.0533784620382391  0.7869579261243231  0.9146454669468085
  0.7666241287224835  0.8039833156324434  0.0769307082803792
  0.8727980661279986  0.9204622037253714  0.1725461376840016
  0.9283696834198309  0.9254180126071958  0.3820767975648280
  0.8698738077939154  0.8426975207730862  0.8344560398635750
  0.6279018178640428  0.4206609305215068  0.6690187345538661
  0.5749905524297887  0.3373202682981997  0.1223895921092506
  0.0719296844241626  0.8365944649005996  0.1262408873182395
  0.5723258162756792  0.4255152565038571  0.8787174642029854
  0.6303961683545367  0.3425985771334439  0.3316689740064618
  0.4257363304053854  0.4248395201572137  0.3797076567937552
  0.1275021835878860  0.8414459059848909  0.3359411812298703
  0.0749614476998559  0.9248442203141707  0.8827334878795341
  0.4284470312032411  0.3367652875560125  0.6228848559200628
  0.9253313922893796  0.8373355011853576  0.6253789765967923
  0.1302737161886185  0.9195288619699866  0.6733859152198605
  0.3728297382703190  0.3416806319592354  0.8324406308518562
  0.3704259866217683  0.4195748799399652  0.1703094770227409
  0.8100154259362355  0.0260057409912591  0.2459575705889065
  0.8019055671370978  0.7375707272484533  0.7606617055218834
  0.6902638787119670  0.5262120835209174  0.7437477201518661
  0.6969938917042455  0.2373510311613174  0.2582747622031576
  0.1899505718692751  0.7359286195508474  0.2608646378849286
  0.3030536432958755  0.5247029717993001  0.2447694611005957
  0.1973456416920101  0.0247718600296238  0.7460528428401503
  0.3100162771596260  0.2361540067345516  0.7582245946245223
  0.7037900622655044  0.0106440180807326  0.5880377071223606
  0.9194224993214135  0.0417111310715228  0.9082910089500729
  0.9109090294786668  0.7217004147724779  0.0986881614708821
  0.5808233828784850  0.5420009765277314  0.4063015066377815
  0.5876340021253696  0.2215369771389462  0.5959165654522707
  0.2961721600960843  0.7514911352020164  0.9189883217576451
  0.7962098672309352  0.5107616233979755  0.0860996407778956
  0.8037051442187817  0.2528144987171501  0.9169758234847123
  0.1973852159656886  0.5091521322184462  0.5875604895914677
  0.0805517523814316  0.7200323160049606  0.5983046298191894
  0.0885047161565566  0.0404771883398567  0.4076159591587896
  0.4193804450673539  0.2204631506720034  0.0958648926814618
  0.6951748849667965  0.7531015682590549  0.4195609139677714
  0.3032795796665440  0.0094573563625957  0.0885421763158902
  0.2038157283578883  0.2514988962544891  0.4162170346527532
  0.4115503519536077  0.5406220832165687  0.9058445468303375
 
  0.00000000E+00  0.00000000E+00  0.00000000E+00
  0.00000000E+00  0.00000000E+00  0.00000000E+00
  0.00000000E+00  0.00000000E+00  0.00000000E+00
  0.00000000E+00  0.00000000E+00  0.00000000E+00
  0.00000000E+00  0.00000000E+00  0.00000000E+00
  0.00000000E+00  0.00000000E+00  0.00000000E+00
  0.00000000E+00  0.00000000E+00  0.00000000E+00
  0.00000000E+00  0.00000000E+00  0.00000000E+00
  0.00000000E+00  0.00000000E+00  0.00000000E+00
  0.00000000E+00  0.00000000E+00  0.00000000E+00
  0.00000000E+00  0.00000000E+00  0.00000000E+00
  0.00000000E+00  0.00000000E+00  0.00000000E+00
  0.00000000E+00  0.00000000E+00  0.00000000E+00
  0.00000000E+00  0.00000000E+00  0.00000000E+00
  0.00000000E+00  0.00000000E+00  0.00000000E+00
  0.00000000E+00  0.00000000E+00  0.00000000E+00
  0.00000000E+00  0.00000000E+00  0.00000000E+00
  0.00000000E+00  0.00000000E+00  0.00000000E+00
  0.00000000E+00  0.00000000E+00  0.00000000E+00
  0.00000000E+00  0.00000000E+00  0.00000000E+00
  0.00000000E+00  0.00000000E+00  0.00000000E+00
  0.00000000E+00  0.00000000E+00  0.00000000E+00
  0.00000000E+00  0.00000000E+00  0.00000000E+00
  0.00000000E+00  0.00000000E+00  0.00000000E+00
  0.00000000E+00  0.00000000E+00  0.00000000E+00
  0.00000000E+00  0.00000000E+00  0.00000000E+00
  0.00000000E+00  0.00000000E+00  0.00000000E+00
  0.00000000E+00  0.00000000E+00  0.00000000E+00
  0.00000000E+00  0.00000000E+00  0.00000000E+00
  0.00000000E+00  0.00000000E+00  0.00000000E+00
  0.00000000E+00  0.00000000E+00  0.00000000E+00
  0.00000000E+00  0.00000000E+00  0.00000000E+00
  0.00000000E+00  0.00000000E+00  0.00000000E+00
  0.00000000E+00  0.00000000E+00  0.00000000E+00
  0.00000000E+00  0.00000000E+00  0.00000000E+00
  0.00000000E+00  0.00000000E+00  0.00000000E+00
  0.00000000E+00  0.00000000E+00  0.00000000E+00
  0.00000000E+00  0.00000000E+00  0.00000000E+00
  0.00000000E+00  0.00000000E+00  0.00000000E+00
  0.00000000E+00  0.00000000E+00  0.00000000E+00
  0.00000000E+00  0.00000000E+00  0.00000000E+00
  0.00000000E+00  0.00000000E+00  0.00000000E+00
  0.00000000E+00  0.00000000E+00  0.00000000E+00
  0.00000000E+00  0.00000000E+00  0.00000000E+00
  0.00000000E+00  0.00000000E+00  0.00000000E+00
  0.00000000E+00  0.00000000E+00  0.00000000E+00
  0.00000000E+00  0.00000000E+00  0.00000000E+00
  0.00000000E+00  0.00000000E+00  0.00000000E+00
  0.00000000E+00  0.00000000E+00  0.00000000E+00
  0.00000000E+00  0.00000000E+00  0.00000000E+00
  0.00000000E+00  0.00000000E+00  0.00000000E+00
  0.00000000E+00  0.00000000E+00  0.00000000E+00
  0.00000000E+00  0.00000000E+00  0.00000000E+00
  0.00000000E+00  0.00000000E+00  0.00000000E+00
  0.00000000E+00  0.00000000E+00  0.00000000E+00
  0.00000000E+00  0.00000000E+00  0.00000000E+00
  0.00000000E+00  0.00000000E+00  0.00000000E+00
  0.00000000E+00  0.00000000E+00  0.00000000E+00
  0.00000000E+00  0.00000000E+00  0.00000000E+00
  0.00000000E+00  0.00000000E+00  0.00000000E+00
  0.00000000E+00  0.00000000E+00  0.00000000E+00
  0.00000000E+00  0.00000000E+00  0.00000000E+00
  0.00000000E+00  0.00000000E+00  0.00000000E+00
  0.00000000E+00  0.00000000E+00  0.00000000E+00
  0.00000000E+00  0.00000000E+00  0.00000000E+00
  0.00000000E+00  0.00000000E+00  0.00000000E+00
  0.00000000E+00  0.00000000E+00  0.00000000E+00
  0.00000000E+00  0.00000000E+00  0.00000000E+00
  0.00000000E+00  0.00000000E+00  0.00000000E+00
  0.00000000E+00  0.00000000E+00  0.00000000E+00
  0.00000000E+00  0.00000000E+00  0.00000000E+00
  0.00000000E+00  0.00000000E+00  0.00000000E+00
  0.00000000E+00  0.00000000E+00  0.00000000E+00
  0.00000000E+00  0.00000000E+00  0.00000000E+00
  0.00000000E+00  0.00000000E+00  0.00000000E+00
  0.00000000E+00  0.00000000E+00  0.00000000E+00
  0.00000000E+00  0.00000000E+00  0.00000000E+00
  0.00000000E+00  0.00000000E+00  0.00000000E+00
  0.00000000E+00  0.00000000E+00  0.00000000E+00
  0.00000000E+00  0.00000000E+00  0.00000000E+00
  0.00000000E+00  0.00000000E+00  0.00000000E+00
  0.00000000E+00  0.00000000E+00  0.00000000E+00
  0.00000000E+00  0.00000000E+00  0.00000000E+00
  0.00000000E+00  0.00000000E+00  0.00000000E+00
  0.00000000E+00  0.00000000E+00  0.00000000E+00
  0.00000000E+00  0.00000000E+00  0.00000000E+00
  0.00000000E+00  0.00000000E+00  0.00000000E+00
  0.00000000E+00  0.00000000E+00  0.00000000E+00
  0.00000000E+00  0.00000000E+00  0.00000000E+00
  0.00000000E+00  0.00000000E+00  0.00000000E+00
  0.00000000E+00  0.00000000E+00  0.00000000E+00
  0.00000000E+00  0.00000000E+00  0.00000000E+00
  0.00000000E+00  0.00000000E+00  0.00000000E+00
  0.00000000E+00  0.00000000E+00  0.00000000E+00
  0.00000000E+00  0.00000000E+00  0.00000000E+00
  0.00000000E+00  0.00000000E+00  0.00000000E+00
  0.00000000E+00  0.00000000E+00  0.00000000E+00
  0.00000000E+00  0.00000000E+00  0.00000000E+00
  0.00000000E+00  0.00000000E+00  0.00000000E+00
  0.00000000E+00  0.00000000E+00  0.00000000E+00
  0.00000000E+00  0.00000000E+00  0.00000000E+00
  0.00000000E+00  0.00000000E+00  0.00000000E+00
  0.00000000E+00  0.00000000E+00  0.00000000E+00
  0.00000000E+00  0.00000000E+00  0.00000000E+00
  0.00000000E+00  0.00000000E+00  0.00000000E+00
  0.00000000E+00  0.00000000E+00  0.00000000E+00
  0.00000000E+00  0.00000000E+00  0.00000000E+00
  0.00000000E+00  0.00000000E+00  0.00000000E+00
  0.00000000E+00  0.00000000E+00  0.00000000E+00
  0.00000000E+00  0.00000000E+00  0.00000000E+00
  0.00000000E+00  0.00000000E+00  0.00000000E+00
  0.00000000E+00  0.00000000E+00  0.00000000E+00
  0.00000000E+00  0.00000000E+00  0.00000000E+00
  0.00000000E+00  0.00000000E+00  0.00000000E+00
  0.00000000E+00  0.00000000E+00  0.00000000E+00
  0.00000000E+00  0.00000000E+00  0.00000000E+00
  0.00000000E+00  0.00000000E+00  0.00000000E+00
  0.00000000E+00  0.00000000E+00  0.00000000E+00
  0.00000000E+00  0.00000000E+00  0.00000000E+00
  0.00000000E+00  0.00000000E+00  0.00000000E+00
  0.00000000E+00  0.00000000E+00  0.00000000E+00
  0.00000000E+00  0.00000000E+00  0.00000000E+00
  0.00000000E+00  0.00000000E+00  0.00000000E+00
  0.00000000E+00  0.00000000E+00  0.00000000E+00
  0.00000000E+00  0.00000000E+00  0.00000000E+00
  0.00000000E+00  0.00000000E+00  0.00000000E+00
  0.00000000E+00  0.00000000E+00  0.00000000E+00
  0.00000000E+00  0.00000000E+00  0.00000000E+00
  0.00000000E+00  0.00000000E+00  0.00000000E+00
  0.00000000E+00  0.00000000E+00  0.00000000E+00
  0.00000000E+00  0.00000000E+00  0.00000000E+00
  0.00000000E+00  0.00000000E+00  0.00000000E+00
  0.00000000E+00  0.00000000E+00  0.00000000E+00
  0.00000000E+00  0.00000000E+00  0.00000000E+00
  0.00000000E+00  0.00000000E+00  0.00000000E+00
  0.00000000E+00  0.00000000E+00  0.00000000E+00
  0.00000000E+00  0.00000000E+00  0.00000000E+00
  0.00000000E+00  0.00000000E+00  0.00000000E+00
  0.00000000E+00  0.00000000E+00  0.00000000E+00
  0.00000000E+00  0.00000000E+00  0.00000000E+00
  0.00000000E+00  0.00000000E+00  0.00000000E+00
  0.00000000E+00  0.00000000E+00  0.00000000E+00
  0.00000000E+00  0.00000000E+00  0.00000000E+00
  0.00000000E+00  0.00000000E+00  0.00000000E+00
  0.00000000E+00  0.00000000E+00  0.00000000E+00
  0.00000000E+00  0.00000000E+00  0.00000000E+00
  0.00000000E+00  0.00000000E+00  0.00000000E+00
  0.00000000E+00  0.00000000E+00  0.00000000E+00
  0.00000000E+00  0.00000000E+00  0.00000000E+00
  0.00000000E+00  0.00000000E+00  0.00000000E+00
  0.00000000E+00  0.00000000E+00  0.00000000E+00
  0.00000000E+00  0.00000000E+00  0.00000000E+00
  0.00000000E+00  0.00000000E+00  0.00000000E+00
  0.00000000E+00  0.00000000E+00  0.00000000E+00
  0.00000000E+00  0.00000000E+00  0.00000000E+00
  0.00000000E+00  0.00000000E+00  0.00000000E+00
