Zn_H                                    
   1.00000000000000     
    22.7545163640834005   -0.0011251381119964    0.0016089433446957
     0.0017245798400288   25.9683896337600189   -5.7601075637537145
     0.0015690645326503   -1.0316667288283479    6.3879401236806101
   C    Zn   H    N    O 
    80     4    32    24    16
Direct
  0.9386103157621903  0.9698971280589035  0.1650198530092837
  0.8864063440423848  0.9529664154335435  0.4236446078315694
  0.9383417994105727  0.7857418250051111  0.8786761847234672
  0.5612099951526517  0.4700670246413239  0.6663957879929185
  0.6135333819401225  0.3027954123219914  0.1210674985775455
  0.1135388457909343  0.8025910462190424  0.1202617703111173
  0.6134398284261167  0.4531316315826928  0.9248331230564801
  0.5614201255491906  0.2857778364190864  0.3796837433819391
  0.3862888967518501  0.4529823610979520  0.4251271452774574
  0.0612498113738056  0.7856051371816335  0.3785649972294181
  0.1135521482316761  0.9528478020607025  0.9235252668941456
  0.3863147558159739  0.3028339664460518  0.6217288050130918
  0.8861806088055246  0.8028540108053690  0.6204927543709573
  0.0614222971316352  0.9698350451458779  0.6649785511971373
  0.4384878568220927  0.2858228952081561  0.8801269536102652
  0.4384659453577697  0.4700336029562635  0.1667234802508375
  0.8152674445325516  0.0153697106591864  0.0899563257939491
  0.8411471446752188  0.0719258671114176  0.4855257581428916
  0.8405505030556597  0.6840388661095389  0.5583560743202796
  0.6586120737804464  0.5721223446122252  0.9863469778480294
  0.6591337693993111  0.1839407498341430  0.0584162708410219
  0.1845555544869057  0.7402533406039566  0.4545077770017869
  0.6845477259849915  0.5154947991211358  0.5908290631130200
  0.6847786070422330  0.2403418519666474  0.4543809032931136
  0.3150519417094415  0.5152849269140347  0.0913715210311210
  0.1589882858974363  0.6837400308096022  0.0585658487452605
  0.1587956004203974  0.0718337235403439  0.9858272784798245
  0.3407904300719053  0.1840215021407872  0.5591400179595780
  0.8148903847692495  0.7405198758466582  0.9543079258622171
  0.1847355257954035  0.0153652766865875  0.5901276669436513
  0.3151473502648940  0.2403358871231305  0.9552926819300893
  0.3408738683256090  0.5719255323216004  0.4869355991627202
  0.7745343656327677  0.0586375996498063  0.0872367716419333
  0.8015118116123290  0.1148811312077029  0.4724172709228895
  0.8009729435182464  0.6410749558627131  0.5717527169565813
  0.6982561649551968  0.6150566547655387  0.9730546295007869
  0.6987608277490196  0.1409722756709328  0.0715430950254756
  0.2253635948325581  0.6970591190691309  0.4574266474230129
  0.7252618813107929  0.5587574990455977  0.5878996522741815
  0.7256616690569544  0.1971562669737921  0.4568231178990416
  0.2742851023919073  0.5585041410884912  0.0884552091904069
  0.1985496882964952  0.6407836203839210  0.0721363366656362
  0.1984339001986228  0.1148110684626715  0.9729106737755231
  0.3011828362536448  0.1410340902312512  0.5721572186471420
  0.7740542372711516  0.6973269761343985  0.9570398166712053
  0.2254462305325760  0.0586614625083683  0.5875657638868219
  0.2742735745823310  0.1971307016541175  0.9576293800368276
  0.3011844839996414  0.6148224586149595  0.4736411702103638
  0.7419510250092856  0.0517719513795001  0.8971065604938531
  0.7960111024787935  0.1630407227103845  0.6548260885376678
  0.7954921799925572  0.5928979828292995  0.3894355968237022
  0.7037286883865690  0.6632397900517120  0.1553448951187946
  0.7042571050297681  0.0928102366913777  0.8891463151548820
  0.2578976597322722  0.7039850241629111  0.6477387515262762
  0.7578275488376818  0.5518640383611810  0.3976167296212054
  0.7582532078305491  0.2040417210808130  0.6469642566004055
  0.2417480986308504  0.5515809397868381  0.8981612958578040
  0.2040731110597633  0.5925946111250795  0.8898963425003004
  0.2039084785928225  0.1629418103816249  0.1554614424904770
  0.2957005762787475  0.0929124950344900  0.3895813822481387
  0.7414621799389423  0.7042383836025010  0.1472847730534994
  0.2580239183073871  0.0518498911431422  0.3973978642732661
  0.2416621086744399  0.2039643576078802  0.1477620455219295
  0.2956318184216329  0.6630003038259176  0.6559236181215198
  0.8876046993775759  0.9848738536327275  0.2936840987886953
  0.8872854249855067  0.7709237641755777  0.7503539688348440
  0.6122200854945632  0.4850386466637815  0.7948649951240867
  0.6124055803840847  0.2708466525162976  0.2508553890085068
  0.1123224286155065  0.7706963146953711  0.2502676611995440
  0.3874418807634754  0.4849206748826589  0.2952970726074540
  0.1123931901903532  0.9847907078905678  0.7937082075461390
  0.3874724685182542  0.2709095105747323  0.7516121644042357
  0.7693084610912280  0.1070931356416551  0.2758883825005825
  0.7687996092036400  0.6488689504744158  0.7684311288200618
  0.7304700953630032  0.6072334266163608  0.7764478929378527
  0.7309506135786705  0.1487311709625061  0.2680819180715233
  0.2306751435353576  0.6485963945028317  0.2688596806030503
  0.2690172327657692  0.6069819762974120  0.2769875666420134
  0.2306523292787759  0.1070795915298319  0.7763882874740347
  0.2689966712801848  0.1487403542954056  0.7687355540019070
  0.0261004560884999  0.8777133799852592  0.0216879107272163
  0.9738006021167749  0.8777973035662399  0.5217959946823072
  0.4738220967763382  0.3778618704105128  0.5230905099921586
  0.5260439189778126  0.3779352513909728  0.0231719314724899
  0.3212027384151597  0.0880678867056019  0.2408393463277534
  0.7531467741843443  0.5140688088639820  0.2551296472056279
  0.7535115959214451  0.2418050720934062  0.7895772033668820
  0.7466401211106941  0.0139910000585246  0.7545251283671348
  0.7461892887172112  0.7420156462837539  0.2898277637776090
  0.6782063496584243  0.6681723372733046  0.3041377088372812
  0.1786185587034765  0.5876688340067489  0.7410256774400423
  0.1783716619486100  0.1678144933818828  0.3041630199996845
  0.8209884364773714  0.5879900249357704  0.2406158774151237
  0.2463954157906443  0.2416963862814612  0.2905225917902925
  0.2464821309392136  0.5137824371016606  0.7557021650121740
  0.2531198047874383  0.7417639009397234  0.7902573326307731
  0.3211187067013412  0.6679540837900291  0.8047602599856418
  0.6787495803793036  0.0879066161519120  0.7404099330782401
  0.8215318505265898  0.1679511912162255  0.8035373040656282
  0.2533392166825124  0.0140977557620445  0.2546994677315695
  0.6442157709538989  0.4527169483802354  0.0525615841121052
  0.3555567842101368  0.3032762406760696  0.4940038947782384
  0.4556818954548660  0.4842933957467608  0.0417354889986754
  0.0439579433218356  0.7713805871730486  0.5035476066854372
  0.1442764821665321  0.9524147848064644  0.0513754951606913
  0.4557159944680436  0.2715892677868297  0.0051453894754729
  0.9558590170280112  0.9841035591664493  0.0399228400701617
  0.8554068051854316  0.8033666699640634  0.4929203176245238
  0.0442108134929597  0.9840712554086508  0.5399459172345260
  0.5439461606991784  0.4842840351919051  0.5413831296806393
  0.6442656490840335  0.3032485922817969  0.9932125484742684
  0.8556505311454572  0.9525553186866702  0.5515064512668673
  0.5442208251679901  0.2715383767589401  0.5047583483170186
  0.3555312870934983  0.4525158163458727  0.5528980625363289
  0.1443467733211037  0.8030267976584184  0.9926040355294532
  0.9555423348135079  0.7714688998504897  0.0036213610621871
  0.9663634402530477  0.9312582669807981  0.2151790615792351
  0.9340128595483250  0.9205734543612110  0.3725392067945918
  0.9662141614123811  0.8243126140190355  0.8283998732346092
  0.5334831110146609  0.4314227193327866  0.7166113579682900
  0.5659122930312250  0.3351678671139382  0.1723877086808656
  0.0658763880432574  0.8349172632580064  0.1709786378509790
  0.5658459625991057  0.4207346360795299  0.8738769397970927
  0.5336163596909742  0.3244255624556445  0.3297403717820728
  0.4339431310640833  0.4206483503918221  0.3740141817124254
  0.0334749977271755  0.8241987682424465  0.3281556142632667
  0.0659545986229020  0.9204551963945349  0.8722871063873043
  0.4339501061210527  0.3351757845932042  0.6726979172121972
  0.9338881998347119  0.8351109406941646  0.6713066483901358
  0.0336504324127773  0.9311789184672321  0.7149781946675802
  0.4662832306132785  0.3244417817597451  0.8299240185279757
  0.4662741250115161  0.4314076935890014  0.2167832040268323
  0.8464019461060275  0.0248962328308906  0.2904707736329115
  0.8459805369873195  0.7309869182164590  0.7536263119224813
  0.6534064662197991  0.5250541405968079  0.7914335684021765
  0.6536789379379115  0.2308561666728082  0.2538280803288302
  0.1535467907299193  0.7307187322895174  0.2537252598201789
  0.3461693914740138  0.5248777542150975  0.2919733183186395
  0.1535890130613566  0.0248325341503772  0.7906521673886999
  0.3462292925004959  0.2309051343711630  0.7546661302971032
  0.8222092907243734  0.9732417773415776  0.9281087122266811
  0.8683298433244531  0.0762814570514081  0.6553220373813247
  0.8675554403605474  0.6797581698389834  0.3882129222859021
  0.6313841970683356  0.5765255573719017  0.1561641789000490
  0.6321085186325632  0.1796789857282590  0.8883970283832383
  0.1774627217822058  0.7823409041964737  0.6164252672089319
  0.6776370158707437  0.4733449222094066  0.4290733506712101
  0.6776870257393810  0.2823770629708235  0.6165443808358617
  0.3220491235323877  0.4731540510461159  0.9295769053878189
  0.1320149928391530  0.6794236901143904  0.8883709672081110
  0.1315746144204653  0.0761443705323757  0.1555591307431712
  0.3678074915181426  0.1798035499330339  0.3890928346069060
  0.8219528078248430  0.7825910276856689  0.1162882632745124
  0.1778251732264380  0.9732636658799834  0.4281610341453685
  0.3222396235370155  0.2823419332376460  0.1175690975523622
  0.3680818164615118  0.5763412500806027  0.6567580408527363
 
  0.00000000E+00  0.00000000E+00  0.00000000E+00
  0.00000000E+00  0.00000000E+00  0.00000000E+00
  0.00000000E+00  0.00000000E+00  0.00000000E+00
  0.00000000E+00  0.00000000E+00  0.00000000E+00
  0.00000000E+00  0.00000000E+00  0.00000000E+00
  0.00000000E+00  0.00000000E+00  0.00000000E+00
  0.00000000E+00  0.00000000E+00  0.00000000E+00
  0.00000000E+00  0.00000000E+00  0.00000000E+00
  0.00000000E+00  0.00000000E+00  0.00000000E+00
  0.00000000E+00  0.00000000E+00  0.00000000E+00
  0.00000000E+00  0.00000000E+00  0.00000000E+00
  0.00000000E+00  0.00000000E+00  0.00000000E+00
  0.00000000E+00  0.00000000E+00  0.00000000E+00
  0.00000000E+00  0.00000000E+00  0.00000000E+00
  0.00000000E+00  0.00000000E+00  0.00000000E+00
  0.00000000E+00  0.00000000E+00  0.00000000E+00
  0.00000000E+00  0.00000000E+00  0.00000000E+00
  0.00000000E+00  0.00000000E+00  0.00000000E+00
  0.00000000E+00  0.00000000E+00  0.00000000E+00
  0.00000000E+00  0.00000000E+00  0.00000000E+00
  0.00000000E+00  0.00000000E+00  0.00000000E+00
  0.00000000E+00  0.00000000E+00  0.00000000E+00
  0.00000000E+00  0.00000000E+00  0.00000000E+00
  0.00000000E+00  0.00000000E+00  0.00000000E+00
  0.00000000E+00  0.00000000E+00  0.00000000E+00
  0.00000000E+00  0.00000000E+00  0.00000000E+00
  0.00000000E+00  0.00000000E+00  0.00000000E+00
  0.00000000E+00  0.00000000E+00  0.00000000E+00
  0.00000000E+00  0.00000000E+00  0.00000000E+00
  0.00000000E+00  0.00000000E+00  0.00000000E+00
  0.00000000E+00  0.00000000E+00  0.00000000E+00
  0.00000000E+00  0.00000000E+00  0.00000000E+00
  0.00000000E+00  0.00000000E+00  0.00000000E+00
  0.00000000E+00  0.00000000E+00  0.00000000E+00
  0.00000000E+00  0.00000000E+00  0.00000000E+00
  0.00000000E+00  0.00000000E+00  0.00000000E+00
  0.00000000E+00  0.00000000E+00  0.00000000E+00
  0.00000000E+00  0.00000000E+00  0.00000000E+00
  0.00000000E+00  0.00000000E+00  0.00000000E+00
  0.00000000E+00  0.00000000E+00  0.00000000E+00
  0.00000000E+00  0.00000000E+00  0.00000000E+00
  0.00000000E+00  0.00000000E+00  0.00000000E+00
  0.00000000E+00  0.00000000E+00  0.00000000E+00
  0.00000000E+00  0.00000000E+00  0.00000000E+00
  0.00000000E+00  0.00000000E+00  0.00000000E+00
  0.00000000E+00  0.00000000E+00  0.00000000E+00
  0.00000000E+00  0.00000000E+00  0.00000000E+00
  0.00000000E+00  0.00000000E+00  0.00000000E+00
  0.00000000E+00  0.00000000E+00  0.00000000E+00
  0.00000000E+00  0.00000000E+00  0.00000000E+00
  0.00000000E+00  0.00000000E+00  0.00000000E+00
  0.00000000E+00  0.00000000E+00  0.00000000E+00
  0.00000000E+00  0.00000000E+00  0.00000000E+00
  0.00000000E+00  0.00000000E+00  0.00000000E+00
  0.00000000E+00  0.00000000E+00  0.00000000E+00
  0.00000000E+00  0.00000000E+00  0.00000000E+00
  0.00000000E+00  0.00000000E+00  0.00000000E+00
  0.00000000E+00  0.00000000E+00  0.00000000E+00
  0.00000000E+00  0.00000000E+00  0.00000000E+00
  0.00000000E+00  0.00000000E+00  0.00000000E+00
  0.00000000E+00  0.00000000E+00  0.00000000E+00
  0.00000000E+00  0.00000000E+00  0.00000000E+00
  0.00000000E+00  0.00000000E+00  0.00000000E+00
  0.00000000E+00  0.00000000E+00  0.00000000E+00
  0.00000000E+00  0.00000000E+00  0.00000000E+00
  0.00000000E+00  0.00000000E+00  0.00000000E+00
  0.00000000E+00  0.00000000E+00  0.00000000E+00
  0.00000000E+00  0.00000000E+00  0.00000000E+00
  0.00000000E+00  0.00000000E+00  0.00000000E+00
  0.00000000E+00  0.00000000E+00  0.00000000E+00
  0.00000000E+00  0.00000000E+00  0.00000000E+00
  0.00000000E+00  0.00000000E+00  0.00000000E+00
  0.00000000E+00  0.00000000E+00  0.00000000E+00
  0.00000000E+00  0.00000000E+00  0.00000000E+00
  0.00000000E+00  0.00000000E+00  0.00000000E+00
  0.00000000E+00  0.00000000E+00  0.00000000E+00
  0.00000000E+00  0.00000000E+00  0.00000000E+00
  0.00000000E+00  0.00000000E+00  0.00000000E+00
  0.00000000E+00  0.00000000E+00  0.00000000E+00
  0.00000000E+00  0.00000000E+00  0.00000000E+00
  0.00000000E+00  0.00000000E+00  0.00000000E+00
  0.00000000E+00  0.00000000E+00  0.00000000E+00
  0.00000000E+00  0.00000000E+00  0.00000000E+00
  0.00000000E+00  0.00000000E+00  0.00000000E+00
  0.00000000E+00  0.00000000E+00  0.00000000E+00
  0.00000000E+00  0.00000000E+00  0.00000000E+00
  0.00000000E+00  0.00000000E+00  0.00000000E+00
  0.00000000E+00  0.00000000E+00  0.00000000E+00
  0.00000000E+00  0.00000000E+00  0.00000000E+00
  0.00000000E+00  0.00000000E+00  0.00000000E+00
  0.00000000E+00  0.00000000E+00  0.00000000E+00
  0.00000000E+00  0.00000000E+00  0.00000000E+00
  0.00000000E+00  0.00000000E+00  0.00000000E+00
  0.00000000E+00  0.00000000E+00  0.00000000E+00
  0.00000000E+00  0.00000000E+00  0.00000000E+00
  0.00000000E+00  0.00000000E+00  0.00000000E+00
  0.00000000E+00  0.00000000E+00  0.00000000E+00
  0.00000000E+00  0.00000000E+00  0.00000000E+00
  0.00000000E+00  0.00000000E+00  0.00000000E+00
  0.00000000E+00  0.00000000E+00  0.00000000E+00
  0.00000000E+00  0.00000000E+00  0.00000000E+00
  0.00000000E+00  0.00000000E+00  0.00000000E+00
  0.00000000E+00  0.00000000E+00  0.00000000E+00
  0.00000000E+00  0.00000000E+00  0.00000000E+00
  0.00000000E+00  0.00000000E+00  0.00000000E+00
  0.00000000E+00  0.00000000E+00  0.00000000E+00
  0.00000000E+00  0.00000000E+00  0.00000000E+00
  0.00000000E+00  0.00000000E+00  0.00000000E+00
  0.00000000E+00  0.00000000E+00  0.00000000E+00
  0.00000000E+00  0.00000000E+00  0.00000000E+00
  0.00000000E+00  0.00000000E+00  0.00000000E+00
  0.00000000E+00  0.00000000E+00  0.00000000E+00
  0.00000000E+00  0.00000000E+00  0.00000000E+00
  0.00000000E+00  0.00000000E+00  0.00000000E+00
  0.00000000E+00  0.00000000E+00  0.00000000E+00
  0.00000000E+00  0.00000000E+00  0.00000000E+00
  0.00000000E+00  0.00000000E+00  0.00000000E+00
  0.00000000E+00  0.00000000E+00  0.00000000E+00
  0.00000000E+00  0.00000000E+00  0.00000000E+00
  0.00000000E+00  0.00000000E+00  0.00000000E+00
  0.00000000E+00  0.00000000E+00  0.00000000E+00
  0.00000000E+00  0.00000000E+00  0.00000000E+00
  0.00000000E+00  0.00000000E+00  0.00000000E+00
  0.00000000E+00  0.00000000E+00  0.00000000E+00
  0.00000000E+00  0.00000000E+00  0.00000000E+00
  0.00000000E+00  0.00000000E+00  0.00000000E+00
  0.00000000E+00  0.00000000E+00  0.00000000E+00
  0.00000000E+00  0.00000000E+00  0.00000000E+00
  0.00000000E+00  0.00000000E+00  0.00000000E+00
  0.00000000E+00  0.00000000E+00  0.00000000E+00
  0.00000000E+00  0.00000000E+00  0.00000000E+00
  0.00000000E+00  0.00000000E+00  0.00000000E+00
  0.00000000E+00  0.00000000E+00  0.00000000E+00
  0.00000000E+00  0.00000000E+00  0.00000000E+00
  0.00000000E+00  0.00000000E+00  0.00000000E+00
  0.00000000E+00  0.00000000E+00  0.00000000E+00
  0.00000000E+00  0.00000000E+00  0.00000000E+00
  0.00000000E+00  0.00000000E+00  0.00000000E+00
  0.00000000E+00  0.00000000E+00  0.00000000E+00
  0.00000000E+00  0.00000000E+00  0.00000000E+00
  0.00000000E+00  0.00000000E+00  0.00000000E+00
  0.00000000E+00  0.00000000E+00  0.00000000E+00
  0.00000000E+00  0.00000000E+00  0.00000000E+00
  0.00000000E+00  0.00000000E+00  0.00000000E+00
  0.00000000E+00  0.00000000E+00  0.00000000E+00
  0.00000000E+00  0.00000000E+00  0.00000000E+00
  0.00000000E+00  0.00000000E+00  0.00000000E+00
  0.00000000E+00  0.00000000E+00  0.00000000E+00
  0.00000000E+00  0.00000000E+00  0.00000000E+00
  0.00000000E+00  0.00000000E+00  0.00000000E+00
  0.00000000E+00  0.00000000E+00  0.00000000E+00
  0.00000000E+00  0.00000000E+00  0.00000000E+00
  0.00000000E+00  0.00000000E+00  0.00000000E+00
  0.00000000E+00  0.00000000E+00  0.00000000E+00
  0.00000000E+00  0.00000000E+00  0.00000000E+00
  0.00000000E+00  0.00000000E+00  0.00000000E+00
