system = flex_MOF

ISTART = 1
#INIWAV = 1
ICHARG = 0

NCORE = 8

ENCUT = 600
EDIFF = 1E-6
GGA = PE

LREAL = .FALSE.
ALGO = N
#IALGO = 38

VDW_S8 = 2.310
VDW_A1 = 0.383
VDW_A2 = 5.685
IVDW = 12

ISPIN = 2
NELMIN = 10
NELM = 150
ISMEAR = 0
SIGMA = 0.01

LHFCALC = .TRUE.
HFSCREEN = 0.2
PRECFOCK = Fast

NBANDS = 512 
