system = flex_MOF

ISTART = 1
#INIWAV = 1
ICHARG = 0

NCORE = 8

ENCUT = 600
EDIFF = 1E-6
GGA = PE

LREAL = .FALSE.
ALGO = D
#IALGO = 38

ISPIN = 2
NELMIN = 4
NELM = 150
ISMEAR = 0
SIGMA = 0.01

LHFCALC = .TRUE.
HFSCREEN = 0.2
PRECFOCK = Fast

LASPH = .FALSE.
LCHARG = .FALSE.
LWAVE = .TRUE.
LORBIT = 11
NEDOS = 3000

KSPACING = 0.3
KGAMMA = .TRUE.
NBANDS = 512 
