Zn_H                                    
   1.00000000000000     
    23.9956620250618933   -0.0009724334271746    0.0009489792144404
     0.0018948258252571   25.0031436180733664   -5.0488429401565078
     0.0013306738947495   -0.7217942112737796    6.8039381834638455
   C    Zn   H    N    O 
    80     4    32    24    16
Direct
  0.9351994990068420  0.9689493346997224  0.1537499975807748
  0.8959036598427303  0.9559246921336566  0.4305202805220674
  0.9348957443681627  0.7867053281384742  0.8904550253232273
  0.5646213729798504  0.4690595923803258  0.6547162120738008
  0.6039850292320850  0.2997930865666376  0.1142762877846977
  0.1039485373499360  0.7996092264259005  0.1135876811043488
  0.6039308604255638  0.4560011703047309  0.9313551930300008
  0.5648390554464271  0.2867407874441099  0.3912617689208631
  0.3958367168436467  0.4559166003033326  0.4314451499464127
  0.0646951868179855  0.7866085966460972  0.3904920856958825
  0.1039971018345156  0.9558000086106944  0.9304720840548697
  0.3958564742236561  0.2997758617704420  0.6145031608893206
  0.8957250008813418  0.7998637018208470  0.6137469468454526
  0.0647319194831582  0.9689313228903842  0.6538908755201831
  0.4349740775411277  0.2867822338921968  0.8915754975406855
  0.4351683650844365  0.4690835178077535  0.1549669858774863
  0.8215992638131269  0.0200484040213453  0.0992207798884266
  0.8406032338528107  0.0697763167999454  0.4698111595058023
  0.8400714630181270  0.6861766870283148  0.5743697311382761
  0.6592159225769194  0.5698833741616838  0.9704893944233461
  0.6596074265401981  0.1861126161295346  0.0746113667132562
  0.1783368791895157  0.7356475787368382  0.4452117428646787
  0.6782201651047473  0.5201050789464787  0.5999162018799211
  0.6785386575209387  0.2357680869322110  0.4453173986087720
  0.3214656196169159  0.5199556404764820  0.1002303940872480
  0.1594968550535327  0.6859133185337996  0.0745244087220698
  0.1592875627620103  0.0697033288042732  0.9700768146953749
  0.3402816710297571  0.1861102361769440  0.5749617552586130
  0.8211680946811128  0.7358926101269105  0.9450877440275605
  0.1783542499467998  0.0200027628440580  0.5994683827032077
  0.3213333996384335  0.2357243641700535  0.9457137018926360
  0.3404024293286767  0.5697566411707413  0.4707914818359953
  0.7794388857829375  0.0625004654073038  0.0978843820382664
  0.7996597954178881  0.1123517292262548  0.4585769102600565
  0.7991410079353614  0.6436131534926020  0.5858313877138244
  0.7001022722796648  0.6124820781784379  0.9590042877232534
  0.7005745683998867  0.1435476764078132  0.0858181226057511
  0.2205389918663059  0.6932585801182256  0.4467792856436716
  0.7203460220868294  0.5625602468903566  0.5983490408704881
  0.7207647905189773  0.1933717675292712  0.4465651430700106
  0.2792723718846375  0.5623512369841777  0.0986856671368912
  0.2004315697083783  0.6433538448269971  0.0860385528658156
  0.2002310143737631  0.1122867264367642  0.9589191962766819
  0.2993293438276936  0.1435379062992865  0.5861571850748959
  0.7789418873026719  0.6935121475951291  0.9465489279608406
  0.2204944250306013  0.0624695862498328  0.5981775067952739
  0.2791187882143547  0.1933163174996153  0.9469483511508088
  0.2994196594639007  0.6122825127745628  0.4593638519456036
  0.7494046910967285  0.0583325272402604  0.9201523249691093
  0.7901638140289080  0.1572662025663334  0.6301280315362092
  0.7896324677707867  0.5986879505585492  0.4143464123718346
  0.7095654743802058  0.6574390274716961  0.1304110291161820
  0.7101097737793225  0.0986594497650159  0.9142021049643745
  0.2505427547613266  0.6974884559812295  0.6246159331244314
  0.7503680334667422  0.5583577173732763  0.4205146022265183
  0.7508390710919244  0.1975671123120293  0.6242277420800093
  0.2492864692837529  0.5581299693808504  0.9208058966080657
  0.2099956410067989  0.5984322482341540  0.9145709706215541
  0.2097145893191765  0.1571853530754055  0.1305150836208284
  0.2898151158578202  0.0986635858224147  0.4145021957221999
  0.7488655120449437  0.6977439782073702  0.1242969048329883
  0.2505341616367147  0.0583252976925834  0.4204260946699634
  0.2490399784953894  0.1974892513882125  0.1246413986745551
  0.2898647555203908  0.6572109487812980  0.6308082783818776
  0.8909602611064500  0.9862661862504396  0.2913630340909208
  0.8906424146650878  0.7695253163338123  0.7528672991529746
  0.6088632701145684  0.4863613491105312  0.7922458988011059
  0.6090478713643819  0.2694658626298718  0.2534389048308938
  0.1089451038040394  0.7693119488974745  0.2528758499495254
  0.3908872675564510  0.4863087426024109  0.2924637960959231
  0.1089637634044465  0.9861926751475423  0.7914845018836232
  0.3907851652230434  0.2694809775343288  0.7537716462378299
  0.7700165488558142  0.1074555445895840  0.2752292894585580
  0.7695266041355069  0.6485310194871730  0.7693161808391480
  0.7297397193788058  0.6075528434608160  0.7755651133751300
  0.7301991234607286  0.1484280028265843  0.2692037472399846
  0.2300055058635806  0.6482821913508090  0.2695625813788425
  0.2698132784377094  0.6073337954168991  0.2758979095125298
  0.2298903173757836  0.1074089774530336  0.7755662711296196
  0.2696978341429457  0.1483893862391241  0.7695571034693032
  0.0190009056495697  0.8776972362969389  0.0220204727942104
  0.9808348364779320  0.8777991480912206  0.5221827186762908
  0.4808476919017721  0.3778448855470415  0.5230119824283790
  0.5189627946095570  0.3778752106076624  0.0229733527348444
  0.3133600090389024  0.0957836151563569  0.2754669753370180
  0.7423609428530895  0.5233221583824559  0.2862361240222526
  0.7428325091794008  0.2325875359438143  0.7585843146750477
  0.7574249502639745  0.0233263554347758  0.7857595880594062
  0.7568582003713047  0.7327896055740908  0.2585549332411077
  0.6859864800981939  0.6603990054291557  0.2694310959585025
  0.1864826339537728  0.5954895642744233  0.7754599772606596
  0.1861132290814567  0.1601063286734998  0.2694606466784037
  0.8131620272412547  0.5957661283093358  0.2752434066301817
  0.2570410096522195  0.2324895596186636  0.2590505568760264
  0.2573460809033818  0.5231015656781466  0.7865243495519962
  0.2424847347310148  0.7325214092164032  0.7588690496314356
  0.3134133326132940  0.6601873003828871  0.7698660317238790
  0.6865729174579513  0.0957566048314504  0.7751743286927848
  0.8137609129031631  0.1602037714274829  0.7690509952073938
  0.2425291731128141  0.0233279786338016  0.2860090529911830
  0.6285950120926316  0.4574210039209419  0.0659399701595618
  0.3712646260278376  0.2983420689929872  0.4797443905777641
  0.4465185934712466  0.4815477202323208  0.0219770006080751
  0.0533719789877338  0.7742125360477843  0.5236597968815033
  0.1286456591408225  0.9571864713282281  0.0650637261999378
  0.4462257329641162  0.2743949694768801  0.0248100265254152
  0.9465451565549685  0.9813626836150817  0.0206430513161777
  0.8710975295624479  0.7985222574785524  0.4791554983132968
  0.0534023295179651  0.9813917737497562  0.5208907043734925
  0.5532665456445613  0.4814833175205493  0.5216592758916292
  0.6285956268058683  0.2983925694241734  0.9795472059799764
  0.8712446348703793  0.9573565048207939  0.5651735501173718
  0.5535766338235391  0.2743216113914926  0.5244323234193971
  0.3711536697528430  0.4572834044319123  0.5659796572344220
  0.1285912127971898  0.7981779852825568  0.9788996423051231
  0.9461550913210814  0.7742531539544899  0.0235423314591259
  0.9647230123500989  0.9306359078492008  0.2073933106853900
  0.9403196023478841  0.9223195967239732  0.3765239493496821
  0.9645507326053320  0.8249465756089975  0.8368395772801946
  0.5351147416798199  0.4307339334998161  0.7083465467390369
  0.5595425442122064  0.3333521947607707  0.1684550990323928
  0.0595062759728933  0.8331780618331734  0.1675499812405903
  0.5595254537932561  0.4223923593964471  0.8773833005538592
  0.5352295621218701  0.3250172414713575  0.3377082484114737
  0.4402896220025312  0.4223638847944571  0.3774583030441079
  0.0351285480888208  0.8248791870967054  0.3367507287948897
  0.0595766837015219  0.9222149416460041  0.8763951622847586
  0.4402846806823391  0.3333414330878526  0.6686028113060871
  0.9402215694356784  0.8333439724348750  0.6677679259195202
  0.0351940294514321  0.9306004074055494  0.7073877704428781
  0.4645804956607691  0.3250457430377409  0.8379029377635376
  0.4647137307142160  0.4307677835960746  0.2085127574162016
  0.8499214679312743  0.0262706516841007  0.2871513316873049
  0.8494901750906863  0.7296274881785365  0.7570766814172742
  0.6498934358150095  0.5263609566293610  0.7879101377336468
  0.6501766967986242  0.2295259155794582  0.2574495137191875
  0.1500392868440130  0.7293683958359125  0.2572032582508257
  0.3497825771422498  0.5262478939425108  0.2881996155621493
  0.1500074703447964  0.0262025531749543  0.7873808701360474
  0.3496781349913860  0.2295245942650013  0.7578049072525772
  0.8318690899579835  0.9812916138390690  0.9465729700353123
  0.8653747583429308  0.0716020632397800  0.6289025181081485
  0.8647897693009838  0.6843716723508706  0.4151388205992816
  0.6344937851869688  0.5717032282834893  0.1297215643412812
  0.6348866436025986  0.1843435191415779  0.9154681227259260
  0.1679876915113070  0.7744042509988844  0.5977710744852516
  0.6679778332905215  0.4813112661590750  0.4473726540424678
  0.6682165843895262  0.2744944193883185  0.5980266734025790
  0.3317975187858906  0.4811954460039587  0.9476461434260415
  0.1348283944887285  0.6841177859376870  0.9152558296469664
  0.1344875481373862  0.0715157946692742  0.1291491876129527
  0.3650222677846031  0.1843463494752129  0.4158230780456336
  0.8315240990660442  0.7746198925646937  0.0977270142847857
  0.1681183368971517  0.9812516131003051  0.4467681320932471
  0.3316576805560985  0.2744220192411007  0.0984789237119585
  0.3651658637220052  0.5716318797145803  0.6299535018224489
 
  0.00000000E+00  0.00000000E+00  0.00000000E+00
  0.00000000E+00  0.00000000E+00  0.00000000E+00
  0.00000000E+00  0.00000000E+00  0.00000000E+00
  0.00000000E+00  0.00000000E+00  0.00000000E+00
  0.00000000E+00  0.00000000E+00  0.00000000E+00
  0.00000000E+00  0.00000000E+00  0.00000000E+00
  0.00000000E+00  0.00000000E+00  0.00000000E+00
  0.00000000E+00  0.00000000E+00  0.00000000E+00
  0.00000000E+00  0.00000000E+00  0.00000000E+00
  0.00000000E+00  0.00000000E+00  0.00000000E+00
  0.00000000E+00  0.00000000E+00  0.00000000E+00
  0.00000000E+00  0.00000000E+00  0.00000000E+00
  0.00000000E+00  0.00000000E+00  0.00000000E+00
  0.00000000E+00  0.00000000E+00  0.00000000E+00
  0.00000000E+00  0.00000000E+00  0.00000000E+00
  0.00000000E+00  0.00000000E+00  0.00000000E+00
  0.00000000E+00  0.00000000E+00  0.00000000E+00
  0.00000000E+00  0.00000000E+00  0.00000000E+00
  0.00000000E+00  0.00000000E+00  0.00000000E+00
  0.00000000E+00  0.00000000E+00  0.00000000E+00
  0.00000000E+00  0.00000000E+00  0.00000000E+00
  0.00000000E+00  0.00000000E+00  0.00000000E+00
  0.00000000E+00  0.00000000E+00  0.00000000E+00
  0.00000000E+00  0.00000000E+00  0.00000000E+00
  0.00000000E+00  0.00000000E+00  0.00000000E+00
  0.00000000E+00  0.00000000E+00  0.00000000E+00
  0.00000000E+00  0.00000000E+00  0.00000000E+00
  0.00000000E+00  0.00000000E+00  0.00000000E+00
  0.00000000E+00  0.00000000E+00  0.00000000E+00
  0.00000000E+00  0.00000000E+00  0.00000000E+00
  0.00000000E+00  0.00000000E+00  0.00000000E+00
  0.00000000E+00  0.00000000E+00  0.00000000E+00
  0.00000000E+00  0.00000000E+00  0.00000000E+00
  0.00000000E+00  0.00000000E+00  0.00000000E+00
  0.00000000E+00  0.00000000E+00  0.00000000E+00
  0.00000000E+00  0.00000000E+00  0.00000000E+00
  0.00000000E+00  0.00000000E+00  0.00000000E+00
  0.00000000E+00  0.00000000E+00  0.00000000E+00
  0.00000000E+00  0.00000000E+00  0.00000000E+00
  0.00000000E+00  0.00000000E+00  0.00000000E+00
  0.00000000E+00  0.00000000E+00  0.00000000E+00
  0.00000000E+00  0.00000000E+00  0.00000000E+00
  0.00000000E+00  0.00000000E+00  0.00000000E+00
  0.00000000E+00  0.00000000E+00  0.00000000E+00
  0.00000000E+00  0.00000000E+00  0.00000000E+00
  0.00000000E+00  0.00000000E+00  0.00000000E+00
  0.00000000E+00  0.00000000E+00  0.00000000E+00
  0.00000000E+00  0.00000000E+00  0.00000000E+00
  0.00000000E+00  0.00000000E+00  0.00000000E+00
  0.00000000E+00  0.00000000E+00  0.00000000E+00
  0.00000000E+00  0.00000000E+00  0.00000000E+00
  0.00000000E+00  0.00000000E+00  0.00000000E+00
  0.00000000E+00  0.00000000E+00  0.00000000E+00
  0.00000000E+00  0.00000000E+00  0.00000000E+00
  0.00000000E+00  0.00000000E+00  0.00000000E+00
  0.00000000E+00  0.00000000E+00  0.00000000E+00
  0.00000000E+00  0.00000000E+00  0.00000000E+00
  0.00000000E+00  0.00000000E+00  0.00000000E+00
  0.00000000E+00  0.00000000E+00  0.00000000E+00
  0.00000000E+00  0.00000000E+00  0.00000000E+00
  0.00000000E+00  0.00000000E+00  0.00000000E+00
  0.00000000E+00  0.00000000E+00  0.00000000E+00
  0.00000000E+00  0.00000000E+00  0.00000000E+00
  0.00000000E+00  0.00000000E+00  0.00000000E+00
  0.00000000E+00  0.00000000E+00  0.00000000E+00
  0.00000000E+00  0.00000000E+00  0.00000000E+00
  0.00000000E+00  0.00000000E+00  0.00000000E+00
  0.00000000E+00  0.00000000E+00  0.00000000E+00
  0.00000000E+00  0.00000000E+00  0.00000000E+00
  0.00000000E+00  0.00000000E+00  0.00000000E+00
  0.00000000E+00  0.00000000E+00  0.00000000E+00
  0.00000000E+00  0.00000000E+00  0.00000000E+00
  0.00000000E+00  0.00000000E+00  0.00000000E+00
  0.00000000E+00  0.00000000E+00  0.00000000E+00
  0.00000000E+00  0.00000000E+00  0.00000000E+00
  0.00000000E+00  0.00000000E+00  0.00000000E+00
  0.00000000E+00  0.00000000E+00  0.00000000E+00
  0.00000000E+00  0.00000000E+00  0.00000000E+00
  0.00000000E+00  0.00000000E+00  0.00000000E+00
  0.00000000E+00  0.00000000E+00  0.00000000E+00
  0.00000000E+00  0.00000000E+00  0.00000000E+00
  0.00000000E+00  0.00000000E+00  0.00000000E+00
  0.00000000E+00  0.00000000E+00  0.00000000E+00
  0.00000000E+00  0.00000000E+00  0.00000000E+00
  0.00000000E+00  0.00000000E+00  0.00000000E+00
  0.00000000E+00  0.00000000E+00  0.00000000E+00
  0.00000000E+00  0.00000000E+00  0.00000000E+00
  0.00000000E+00  0.00000000E+00  0.00000000E+00
  0.00000000E+00  0.00000000E+00  0.00000000E+00
  0.00000000E+00  0.00000000E+00  0.00000000E+00
  0.00000000E+00  0.00000000E+00  0.00000000E+00
  0.00000000E+00  0.00000000E+00  0.00000000E+00
  0.00000000E+00  0.00000000E+00  0.00000000E+00
  0.00000000E+00  0.00000000E+00  0.00000000E+00
  0.00000000E+00  0.00000000E+00  0.00000000E+00
  0.00000000E+00  0.00000000E+00  0.00000000E+00
  0.00000000E+00  0.00000000E+00  0.00000000E+00
  0.00000000E+00  0.00000000E+00  0.00000000E+00
  0.00000000E+00  0.00000000E+00  0.00000000E+00
  0.00000000E+00  0.00000000E+00  0.00000000E+00
  0.00000000E+00  0.00000000E+00  0.00000000E+00
  0.00000000E+00  0.00000000E+00  0.00000000E+00
  0.00000000E+00  0.00000000E+00  0.00000000E+00
  0.00000000E+00  0.00000000E+00  0.00000000E+00
  0.00000000E+00  0.00000000E+00  0.00000000E+00
  0.00000000E+00  0.00000000E+00  0.00000000E+00
  0.00000000E+00  0.00000000E+00  0.00000000E+00
  0.00000000E+00  0.00000000E+00  0.00000000E+00
  0.00000000E+00  0.00000000E+00  0.00000000E+00
  0.00000000E+00  0.00000000E+00  0.00000000E+00
  0.00000000E+00  0.00000000E+00  0.00000000E+00
  0.00000000E+00  0.00000000E+00  0.00000000E+00
  0.00000000E+00  0.00000000E+00  0.00000000E+00
  0.00000000E+00  0.00000000E+00  0.00000000E+00
  0.00000000E+00  0.00000000E+00  0.00000000E+00
  0.00000000E+00  0.00000000E+00  0.00000000E+00
  0.00000000E+00  0.00000000E+00  0.00000000E+00
  0.00000000E+00  0.00000000E+00  0.00000000E+00
  0.00000000E+00  0.00000000E+00  0.00000000E+00
  0.00000000E+00  0.00000000E+00  0.00000000E+00
  0.00000000E+00  0.00000000E+00  0.00000000E+00
  0.00000000E+00  0.00000000E+00  0.00000000E+00
  0.00000000E+00  0.00000000E+00  0.00000000E+00
  0.00000000E+00  0.00000000E+00  0.00000000E+00
  0.00000000E+00  0.00000000E+00  0.00000000E+00
  0.00000000E+00  0.00000000E+00  0.00000000E+00
  0.00000000E+00  0.00000000E+00  0.00000000E+00
  0.00000000E+00  0.00000000E+00  0.00000000E+00
  0.00000000E+00  0.00000000E+00  0.00000000E+00
  0.00000000E+00  0.00000000E+00  0.00000000E+00
  0.00000000E+00  0.00000000E+00  0.00000000E+00
  0.00000000E+00  0.00000000E+00  0.00000000E+00
  0.00000000E+00  0.00000000E+00  0.00000000E+00
  0.00000000E+00  0.00000000E+00  0.00000000E+00
  0.00000000E+00  0.00000000E+00  0.00000000E+00
  0.00000000E+00  0.00000000E+00  0.00000000E+00
  0.00000000E+00  0.00000000E+00  0.00000000E+00
  0.00000000E+00  0.00000000E+00  0.00000000E+00
  0.00000000E+00  0.00000000E+00  0.00000000E+00
  0.00000000E+00  0.00000000E+00  0.00000000E+00
  0.00000000E+00  0.00000000E+00  0.00000000E+00
  0.00000000E+00  0.00000000E+00  0.00000000E+00
  0.00000000E+00  0.00000000E+00  0.00000000E+00
  0.00000000E+00  0.00000000E+00  0.00000000E+00
  0.00000000E+00  0.00000000E+00  0.00000000E+00
  0.00000000E+00  0.00000000E+00  0.00000000E+00
  0.00000000E+00  0.00000000E+00  0.00000000E+00
  0.00000000E+00  0.00000000E+00  0.00000000E+00
  0.00000000E+00  0.00000000E+00  0.00000000E+00
  0.00000000E+00  0.00000000E+00  0.00000000E+00
  0.00000000E+00  0.00000000E+00  0.00000000E+00
  0.00000000E+00  0.00000000E+00  0.00000000E+00
  0.00000000E+00  0.00000000E+00  0.00000000E+00
  0.00000000E+00  0.00000000E+00  0.00000000E+00
  0.00000000E+00  0.00000000E+00  0.00000000E+00
  0.00000000E+00  0.00000000E+00  0.00000000E+00
