Zn_H                                    
   1.00000000000000     
    16.3003277184297843   -0.0008129446729760   -0.0022803189828180
     0.0028408807637405   30.6766096221579616   -3.4798382444870213
    -0.0001281602499047   -0.6925971332686828    6.2884259177800637
   C    Zn   H    N    O 
    80     4    32    24    16
Direct
  0.9357005888427636  0.9619597766064416  0.1376898416793466
  0.8587936146067037  0.9516935706305745  0.4141466054329328
  0.9367380561365692  0.7935906403925088  0.9072826542695154
  0.5641369617809673  0.4620009801912914  0.6377075619781607
  0.6403640984762902  0.3035787294668637  0.1308229767527251
  0.1409697129960108  0.8039983134594237  0.1306250529063817
  0.6409709145670917  0.4519070027345080  0.9146399315208029
  0.5632112893675441  0.2935376643528542  0.4072627879099571
  0.3596614934584963  0.4521856539407594  0.4146342891382346
  0.0639871512382086  0.7936863853545049  0.4068434921867450
  0.1401679030215419  0.9523276269216367  0.9146911327611491
  0.3590283477634131  0.3040388721658118  0.6310769176991542
  0.8595437629372924  0.8036750201452136  0.6308994955126721
  0.0632994852794369  0.9622006812308470  0.6373887556416733
  0.4361279907463853  0.2937362449679952  0.9071571916096062
  0.4365925227114289  0.4622064535930264  0.1377631618827806
  0.7877195218848527  0.0259277998487448  0.0978062413651202
  0.8519104392687993  0.0580472303383601  0.4600561105009575
  0.8531571285055364  0.6973234828946815  0.5853970231589471
  0.6475142656087058  0.5582537823561253  0.9598961863617319
  0.6463481253327643  0.1971634169585172  0.0855193999036032
  0.2121260501599025  0.7297708252081705  0.4463291474899620
  0.7118707682345473  0.5260912578486057  0.5979017338110921
  0.7106604484631518  0.2293104383453439  0.4476419286344182
  0.2888682793318011  0.5263277665499544  0.0976573197851565
  0.1475817818543845  0.6975610690500389  0.0845567242143659
  0.1464903662208812  0.0586179722765579  0.9594588986239430
  0.3524769626447721  0.1976136060012550  0.5851603978944553
  0.7890455037028730  0.7294628835482655  0.9477027663959063
  0.2106862450128659  0.0264601488886740  0.5972159387304501
  0.2878548212603818  0.2298366262572316  0.9467732723888673
  0.3531174739970311  0.5585075422449961  0.4598614272106758
  0.7513850276406018  0.0700267056763124  0.0992808278929616
  0.8154998569517105  0.1017051953327766  0.4526749305459035
  0.8167953287062559  0.6536591956536100  0.5930025503924554
  0.6839245992646070  0.6019124880556745  0.9524611931830123
  0.6826463910648002  0.1534852874972330  0.0931903845356459
  0.2483054471807833  0.6856617889986225  0.4452669759315171
  0.7480766494227211  0.5702077480334822  0.5992009382054206
  0.7468556880884876  0.1851815982236431  0.4464043377614004
  0.2527038387636225  0.5704518554539817  0.0987105819514014
  0.1840855987445451  0.6539170103701082  0.0920667991714765
  0.1827873204581394  0.1022900896765506  0.9516903836280477
  0.3158588619503035  0.1539883508139681  0.5924261862214806
  0.7526993335974907  0.6853634483234003  0.9463185699698258
  0.2469669145763902  0.0705644867564814  0.5984900192915106
  0.2515366718509497  0.1857416900372044  0.9454152938769980
  0.3168447400099765  0.6021862401381100  0.4519958600842102
  0.7026137201914082  0.0755044708432280  0.9269334748598439
  0.8297636778513038  0.1380799118043399  0.6220480035395113
  0.8310792403151126  0.6172674605318065  0.4237464379487008
  0.6697255101295880  0.6382902157322974  0.1218656228104393
  0.6683056129021665  0.1170929625879396  0.9239946096568659
  0.2968773964520182  0.6801804875502526  0.6179894892256428
  0.7967806891927651  0.5756893747916223  0.4267778313866160
  0.7955074589007509  0.1796714575383263  0.6189389049663987
  0.2039581858201913  0.5759027235059051  0.9262730980675116
  0.1697253623410191  0.6174883068209738  0.9230356560445898
  0.1685676719824514  0.1386832595672729  0.1209782294285091
  0.3302190850474886  0.1175684312915592  0.4233632776119762
  0.7040451563913663  0.6798727617249654  0.1188403882952400
  0.2958096805704926  0.0760077046792134  0.4262504392168012
  0.2028658109796453  0.1802671143059982  0.1179201077128980
  0.3310428591171330  0.6385788650578235  0.6213236584245010
  0.8733497907964107  0.9811158406013831  0.2790999722998251
  0.8744294835403608  0.7742993331961188  0.7660313959756451
  0.6263438959449843  0.4812721887133975  0.7793325988929993
  0.6254136142443727  0.2741926563916479  0.2658492561812906
  0.1263012202034588  0.7745231420649148  0.2653358390901701
  0.3743968673500717  0.4815306909479347  0.2792833917362003
  0.1253835084889587  0.9816158335706149  0.7790617118804732
  0.3737368424767524  0.2745798322235800  0.7658510223439237
  0.7664597217400839  0.1064745329937082  0.2744641724191723
  0.7677276061844225  0.6489063212945894  0.7711471463633046
  0.7329901690491809  0.6066698666502290  0.7743060953694041
  0.7317499971794135  0.1487192164687272  0.2712899225203245
  0.2332033603271384  0.6491858584026602  0.2702261807145661
  0.2678584811837084  0.6069411695142861  0.2736430062116071
  0.2318398556865588  0.1070427164664167  0.7734909613242138
  0.2666158914097423  0.1492709395373666  0.7703440241011847
  0.0373817700812467  0.8779831537611642  0.0226113062135269
  0.9625884213317377  0.8778334095509521  0.5225553269445555
  0.4626826909032786  0.3779678422022599  0.5227179985818751
  0.5375502239637200  0.3778627667379624  0.0227753096876597
  0.3683832993800991  0.1222304174912594  0.2886953318861316
  0.8072598903794628  0.5470016239461089  0.2943812178125711
  0.8060086976159511  0.2083342854202925  0.7514507591114921
  0.6921774668791301  0.0468280523907865  0.7943837267812697
  0.6936533484528624  0.7085341055435421  0.2514650727373038
  0.6318020518289202  0.6335918203156723  0.2569607525622217
  0.1316919185465366  0.6221588215565177  0.7881156291077360
  0.1306996300758243  0.1339787214024994  0.2561394759883342
  0.8690440284745407  0.6219556367135937  0.2887463463312372
  0.1924779700140320  0.2089313690142518  0.2505590551276811
  0.1934028277824353  0.5471991458498238  0.7939879909861531
  0.3072350605349712  0.7088557594365739  0.7505952183560751
  0.3688389700214216  0.6338741761946949  0.7566315320279244
  0.6303040023306110  0.1217804998668583  0.7890293574017946
  0.8676516246836599  0.1333490008666089  0.7571610772625306
  0.3063620781241667  0.0473118919272864  0.2939155249967342
  0.6820860813947434  0.4549032541322617  0.0522808734061755
  0.3177458353336320  0.3011672148946261  0.4938619704260674
  0.4658591428711176  0.4743096024509299  0.0079787504500288
  0.0347440636518996  0.7814529642754096  0.5362557015206804
  0.1812413520272145  0.9554357973685796  0.0524701019443015
  0.4654519306375775  0.2815114565130798  0.0365103292270490
  0.9648377582396392  0.9741398652272011  0.0079809946520015
  0.8183115647372574  0.8006890228820538  0.4934579902805325
  0.0340743477080920  0.9742270972558771  0.5073187400373129
  0.5349697020445063  0.4741028108233820  0.5077745230855868
  0.6815674989422860  0.3005636164402006  0.9933891523458769
  0.8176399097402864  0.9546014433605450  0.5516437279193909
  0.5338256336797400  0.2814190335380076  0.5368303453029455
  0.3184908638243087  0.4552076662207512  0.5521499313851308
  0.1821825167950237  0.8011325443359212  0.9932878124043327
  0.9661185998887518  0.7814579720244623  0.0368102806581021
  0.9571630406530431  0.9232140174480818  0.1853949041482963
  0.9095161784037487  0.9165927359075923  0.3535495405791096
  0.9578679058040791  0.8323711428039573  0.8594288004979092
  0.5428266641262596  0.4232460663462376  0.6855319916816640
  0.5900005450036900  0.3388326482130637  0.1914009834949795
  0.0903553514154893  0.8391376811219260  0.1914816321120227
  0.5904396177409481  0.4167231156988649  0.8539857338553745
  0.5421899576577758  0.3323507224742528  0.3595415787752430
  0.4101112062723544  0.4169677513636287  0.3540996383139827
  0.0426498101738062  0.8324885993356403  0.3594995225623876
  0.0898479346789642  0.9170535962923623  0.8541549103249579
  0.4096850076130849  0.3391649366104161  0.6916973017048349
  0.9100239401884878  0.8388833058825398  0.6913690641944541
  0.0422084848839646  0.9234328887246335  0.6854610691209047
  0.4574571775755842  0.3325235266839144  0.8596476544340348
  0.4577949481571508  0.4234350562213649  0.1856829835717519
  0.8349970879673023  0.0226351339125657  0.2814914359391523
  0.8362833699330707  0.7327432700082710  0.7639398820508845
  0.6645449162397199  0.5228160824321506  0.7815254555224413
  0.6634299942949724  0.2326031621123548  0.2638302860584574
  0.1646294980254055  0.7329972866622327  0.2628922750156732
  0.3362492634195888  0.5230878815933480  0.2812985936024361
  0.1634172808493233  0.0231905771357646  0.7809678472977595
  0.3353901115461611  0.2330612276269903  0.7634410626525323
  0.7776343606668519  0.9936659793565141  0.9471752106697195
  0.8945450397252230  0.0524024374403353  0.6119031762323601
  0.8957103366784125  0.7029553013398413  0.4334157832030954
  0.6047987546779154  0.5526274097573776  0.1116059947430159
  0.6037002809718004  0.2027953315602460  0.9336776006409480
  0.2224259125166697  0.7620930551918406  0.5965170567289491
  0.7220598600642347  0.4938079072860191  0.4474386032549305
  0.7208009506388819  0.2615815755125652  0.5981906421511951
  0.2785853736382933  0.4940137756923093  0.9474138795085025
  0.1047663843685385  0.7031725600795440  0.9329699390571449
  0.1039685775114307  0.0529870005995221  0.1114967881882052
  0.3953700851683237  0.2032127074723391  0.4337460427470390
  0.7789967795551789  0.7617305473215339  0.0983090598761862
  0.2207834808651370  0.9941820556949068  0.4466680419858449
  0.2775963978056097  0.2621396614367555  0.0970881846623328
  0.3955906337153863  0.5528695933437362  0.6120111492690086
 
  0.00000000E+00  0.00000000E+00  0.00000000E+00
  0.00000000E+00  0.00000000E+00  0.00000000E+00
  0.00000000E+00  0.00000000E+00  0.00000000E+00
  0.00000000E+00  0.00000000E+00  0.00000000E+00
  0.00000000E+00  0.00000000E+00  0.00000000E+00
  0.00000000E+00  0.00000000E+00  0.00000000E+00
  0.00000000E+00  0.00000000E+00  0.00000000E+00
  0.00000000E+00  0.00000000E+00  0.00000000E+00
  0.00000000E+00  0.00000000E+00  0.00000000E+00
  0.00000000E+00  0.00000000E+00  0.00000000E+00
  0.00000000E+00  0.00000000E+00  0.00000000E+00
  0.00000000E+00  0.00000000E+00  0.00000000E+00
  0.00000000E+00  0.00000000E+00  0.00000000E+00
  0.00000000E+00  0.00000000E+00  0.00000000E+00
  0.00000000E+00  0.00000000E+00  0.00000000E+00
  0.00000000E+00  0.00000000E+00  0.00000000E+00
  0.00000000E+00  0.00000000E+00  0.00000000E+00
  0.00000000E+00  0.00000000E+00  0.00000000E+00
  0.00000000E+00  0.00000000E+00  0.00000000E+00
  0.00000000E+00  0.00000000E+00  0.00000000E+00
  0.00000000E+00  0.00000000E+00  0.00000000E+00
  0.00000000E+00  0.00000000E+00  0.00000000E+00
  0.00000000E+00  0.00000000E+00  0.00000000E+00
  0.00000000E+00  0.00000000E+00  0.00000000E+00
  0.00000000E+00  0.00000000E+00  0.00000000E+00
  0.00000000E+00  0.00000000E+00  0.00000000E+00
  0.00000000E+00  0.00000000E+00  0.00000000E+00
  0.00000000E+00  0.00000000E+00  0.00000000E+00
  0.00000000E+00  0.00000000E+00  0.00000000E+00
  0.00000000E+00  0.00000000E+00  0.00000000E+00
  0.00000000E+00  0.00000000E+00  0.00000000E+00
  0.00000000E+00  0.00000000E+00  0.00000000E+00
  0.00000000E+00  0.00000000E+00  0.00000000E+00
  0.00000000E+00  0.00000000E+00  0.00000000E+00
  0.00000000E+00  0.00000000E+00  0.00000000E+00
  0.00000000E+00  0.00000000E+00  0.00000000E+00
  0.00000000E+00  0.00000000E+00  0.00000000E+00
  0.00000000E+00  0.00000000E+00  0.00000000E+00
  0.00000000E+00  0.00000000E+00  0.00000000E+00
  0.00000000E+00  0.00000000E+00  0.00000000E+00
  0.00000000E+00  0.00000000E+00  0.00000000E+00
  0.00000000E+00  0.00000000E+00  0.00000000E+00
  0.00000000E+00  0.00000000E+00  0.00000000E+00
  0.00000000E+00  0.00000000E+00  0.00000000E+00
  0.00000000E+00  0.00000000E+00  0.00000000E+00
  0.00000000E+00  0.00000000E+00  0.00000000E+00
  0.00000000E+00  0.00000000E+00  0.00000000E+00
  0.00000000E+00  0.00000000E+00  0.00000000E+00
  0.00000000E+00  0.00000000E+00  0.00000000E+00
  0.00000000E+00  0.00000000E+00  0.00000000E+00
  0.00000000E+00  0.00000000E+00  0.00000000E+00
  0.00000000E+00  0.00000000E+00  0.00000000E+00
  0.00000000E+00  0.00000000E+00  0.00000000E+00
  0.00000000E+00  0.00000000E+00  0.00000000E+00
  0.00000000E+00  0.00000000E+00  0.00000000E+00
  0.00000000E+00  0.00000000E+00  0.00000000E+00
  0.00000000E+00  0.00000000E+00  0.00000000E+00
  0.00000000E+00  0.00000000E+00  0.00000000E+00
  0.00000000E+00  0.00000000E+00  0.00000000E+00
  0.00000000E+00  0.00000000E+00  0.00000000E+00
  0.00000000E+00  0.00000000E+00  0.00000000E+00
  0.00000000E+00  0.00000000E+00  0.00000000E+00
  0.00000000E+00  0.00000000E+00  0.00000000E+00
  0.00000000E+00  0.00000000E+00  0.00000000E+00
  0.00000000E+00  0.00000000E+00  0.00000000E+00
  0.00000000E+00  0.00000000E+00  0.00000000E+00
  0.00000000E+00  0.00000000E+00  0.00000000E+00
  0.00000000E+00  0.00000000E+00  0.00000000E+00
  0.00000000E+00  0.00000000E+00  0.00000000E+00
  0.00000000E+00  0.00000000E+00  0.00000000E+00
  0.00000000E+00  0.00000000E+00  0.00000000E+00
  0.00000000E+00  0.00000000E+00  0.00000000E+00
  0.00000000E+00  0.00000000E+00  0.00000000E+00
  0.00000000E+00  0.00000000E+00  0.00000000E+00
  0.00000000E+00  0.00000000E+00  0.00000000E+00
  0.00000000E+00  0.00000000E+00  0.00000000E+00
  0.00000000E+00  0.00000000E+00  0.00000000E+00
  0.00000000E+00  0.00000000E+00  0.00000000E+00
  0.00000000E+00  0.00000000E+00  0.00000000E+00
  0.00000000E+00  0.00000000E+00  0.00000000E+00
  0.00000000E+00  0.00000000E+00  0.00000000E+00
  0.00000000E+00  0.00000000E+00  0.00000000E+00
  0.00000000E+00  0.00000000E+00  0.00000000E+00
  0.00000000E+00  0.00000000E+00  0.00000000E+00
  0.00000000E+00  0.00000000E+00  0.00000000E+00
  0.00000000E+00  0.00000000E+00  0.00000000E+00
  0.00000000E+00  0.00000000E+00  0.00000000E+00
  0.00000000E+00  0.00000000E+00  0.00000000E+00
  0.00000000E+00  0.00000000E+00  0.00000000E+00
  0.00000000E+00  0.00000000E+00  0.00000000E+00
  0.00000000E+00  0.00000000E+00  0.00000000E+00
  0.00000000E+00  0.00000000E+00  0.00000000E+00
  0.00000000E+00  0.00000000E+00  0.00000000E+00
  0.00000000E+00  0.00000000E+00  0.00000000E+00
  0.00000000E+00  0.00000000E+00  0.00000000E+00
  0.00000000E+00  0.00000000E+00  0.00000000E+00
  0.00000000E+00  0.00000000E+00  0.00000000E+00
  0.00000000E+00  0.00000000E+00  0.00000000E+00
  0.00000000E+00  0.00000000E+00  0.00000000E+00
  0.00000000E+00  0.00000000E+00  0.00000000E+00
  0.00000000E+00  0.00000000E+00  0.00000000E+00
  0.00000000E+00  0.00000000E+00  0.00000000E+00
  0.00000000E+00  0.00000000E+00  0.00000000E+00
  0.00000000E+00  0.00000000E+00  0.00000000E+00
  0.00000000E+00  0.00000000E+00  0.00000000E+00
  0.00000000E+00  0.00000000E+00  0.00000000E+00
  0.00000000E+00  0.00000000E+00  0.00000000E+00
  0.00000000E+00  0.00000000E+00  0.00000000E+00
  0.00000000E+00  0.00000000E+00  0.00000000E+00
  0.00000000E+00  0.00000000E+00  0.00000000E+00
  0.00000000E+00  0.00000000E+00  0.00000000E+00
  0.00000000E+00  0.00000000E+00  0.00000000E+00
  0.00000000E+00  0.00000000E+00  0.00000000E+00
  0.00000000E+00  0.00000000E+00  0.00000000E+00
  0.00000000E+00  0.00000000E+00  0.00000000E+00
  0.00000000E+00  0.00000000E+00  0.00000000E+00
  0.00000000E+00  0.00000000E+00  0.00000000E+00
  0.00000000E+00  0.00000000E+00  0.00000000E+00
  0.00000000E+00  0.00000000E+00  0.00000000E+00
  0.00000000E+00  0.00000000E+00  0.00000000E+00
  0.00000000E+00  0.00000000E+00  0.00000000E+00
  0.00000000E+00  0.00000000E+00  0.00000000E+00
  0.00000000E+00  0.00000000E+00  0.00000000E+00
  0.00000000E+00  0.00000000E+00  0.00000000E+00
  0.00000000E+00  0.00000000E+00  0.00000000E+00
  0.00000000E+00  0.00000000E+00  0.00000000E+00
  0.00000000E+00  0.00000000E+00  0.00000000E+00
  0.00000000E+00  0.00000000E+00  0.00000000E+00
  0.00000000E+00  0.00000000E+00  0.00000000E+00
  0.00000000E+00  0.00000000E+00  0.00000000E+00
  0.00000000E+00  0.00000000E+00  0.00000000E+00
  0.00000000E+00  0.00000000E+00  0.00000000E+00
  0.00000000E+00  0.00000000E+00  0.00000000E+00
  0.00000000E+00  0.00000000E+00  0.00000000E+00
  0.00000000E+00  0.00000000E+00  0.00000000E+00
  0.00000000E+00  0.00000000E+00  0.00000000E+00
  0.00000000E+00  0.00000000E+00  0.00000000E+00
  0.00000000E+00  0.00000000E+00  0.00000000E+00
  0.00000000E+00  0.00000000E+00  0.00000000E+00
  0.00000000E+00  0.00000000E+00  0.00000000E+00
  0.00000000E+00  0.00000000E+00  0.00000000E+00
  0.00000000E+00  0.00000000E+00  0.00000000E+00
  0.00000000E+00  0.00000000E+00  0.00000000E+00
  0.00000000E+00  0.00000000E+00  0.00000000E+00
  0.00000000E+00  0.00000000E+00  0.00000000E+00
  0.00000000E+00  0.00000000E+00  0.00000000E+00
  0.00000000E+00  0.00000000E+00  0.00000000E+00
  0.00000000E+00  0.00000000E+00  0.00000000E+00
  0.00000000E+00  0.00000000E+00  0.00000000E+00
  0.00000000E+00  0.00000000E+00  0.00000000E+00
  0.00000000E+00  0.00000000E+00  0.00000000E+00
  0.00000000E+00  0.00000000E+00  0.00000000E+00
  0.00000000E+00  0.00000000E+00  0.00000000E+00
  0.00000000E+00  0.00000000E+00  0.00000000E+00
  0.00000000E+00  0.00000000E+00  0.00000000E+00
  0.00000000E+00  0.00000000E+00  0.00000000E+00
