FeH_exp1                                
   1.00000000000000     
    24.6707084525934910    0.0015513920555739   -0.0035713720038739
    -0.0004021380020883   24.9703683733270552    3.5860708941918920
    -0.0009864609642229    0.4817603010648517    6.6022197612964293
   C    Fe   H    N    O 
    80     4    32    24    16
Direct
  0.9008864573058801  0.9719975307391024  0.0874449174359526
  0.9309893002954155  0.9825988028963692  0.3940739429554583
  0.9002960583968616  0.8101109492620466  0.9193831461748445
  0.5990203404669288  0.4718564368310467  0.5903487103633296
  0.5697790836463170  0.2986199216133940  0.1168896984119812
  0.0688983231824807  0.7982550372024591  0.1130235772435810
  0.5691364484906742  0.4824710121747628  0.8971551340851391
  0.5997157417564409  0.3097933853853476  0.4229826941261692
  0.4301282992636999  0.4820570876477746  0.3964050364602159
  0.0988695496383158  0.8089106378435815  0.4197481621425965
  0.0699150505055073  0.9821606784101036  0.8931258783009071
  0.4309799707725972  0.2981603824164196  0.6164760465589794
  0.9301918325596077  0.7988191275697076  0.6134569873932492
  0.0997973024801198  0.9710166040324495  0.5869832713871403
  0.4009960682380154  0.3088201998106115  0.9231265534371076
  0.4003290376061415  0.4708970735838491  0.0901270446579829
  0.8216735078031547  0.0374807420107359  0.4320310630108466
  0.8446362151662186  0.0828121918084221  0.0648561096322595
  0.8436134836653295  0.6994431445258371  0.9451484867575246
  0.6551292077388879  0.5827466644663701  0.5662161910984622
  0.6566168042428799  0.1991884458972208  0.4474770994725290
  0.1780677702375968  0.7429923284957596  0.0766084910529514
  0.6783697914588984  0.5377334219961014  0.9334650602058829
  0.6794770210859582  0.2443485003789974  0.0800082039162149
  0.3203878903709310  0.5364624775690814  0.4322249216163812
  0.1551024198316853  0.6981154909966989  0.4442566441454261
  0.1566233941089834  0.0816905885049124  0.5631220451493704
  0.3445915476346499  0.1980220074404073  0.9464754749459914
  0.8204959841381410  0.7443310734610620  0.5775214173374295
  0.1796215327444912  0.0363224894052721  0.9302742357589082
  0.3218766724889406  0.2431103892852562  0.5787756043194392
  0.3435015170884057  0.5814929825704738  0.0648710435712658
  0.7792186134695527  0.0789123166615582  0.4310695071016539
  0.8028147265407242  0.1241698357177796  0.0742891354731228
  0.8017608164399306  0.6580282452157959  0.9367775245096155
  0.6970196403908204  0.6241181964079558  0.5745798391125874
  0.6984642801671015  0.1578154024063778  0.4382949731114323
  0.2206623141325323  0.7016510565131995  0.0787354191248824
  0.7209027827764771  0.5791373615137445  0.9314044250932412
  0.7220261536723527  0.2030015972367707  0.0813680855222216
  0.2778800900487042  0.5778901280516919  0.4302936688324976
  0.1969890152441707  0.6567335546607964  0.4358489295869035
  0.1984763214390313  0.1230254835696272  0.5725651053579526
  0.3027820872404519  0.1566343468942648  0.9370192202327772
  0.7779410851831798  0.7029503326254414  0.5797252532767345
  0.2220512079533563  0.0777596260418534  0.9294200334384826
  0.2793095002876598  0.2018013738712270  0.5799679329818943
  0.3015999711576498  0.6228501991252813  0.0733006615215501
  0.7472431190188473  0.0766444216033335  0.6061593431871373
  0.7941851606287216  0.1662224926793598  0.9028393945530198
  0.7932296204578151  0.6161032176115100  0.1087719152457680
  0.7055517272286949  0.6660303816478432  0.4025799531392522
  0.7071231145597068  0.1157735040450447  0.6098008359200051
  0.2527365527475425  0.7038131468876614  0.9039814538983535
  0.7530597859253660  0.5769739220470811  0.1060297319457106
  0.7540316200147430  0.2053112977539016  0.9063562823293267
  0.2457705591750781  0.5756981701722239  0.6049761417379713
  0.2055783114317506  0.6147997153806699  0.6078011136079766
  0.2071550785407581  0.1650623144996288  0.4010961771928621
  0.2941465249692925  0.1145603983374315  0.1084243515181171
  0.7457813923431829  0.7051094166593970  0.4051192794297407
  0.2540471954850219  0.0754305362225480  0.1045617269044570
  0.2473430689232714  0.2041107113173553  0.4047811645663018
  0.2929728992221285  0.6647466216987254  0.9012825238232125
  0.8920053867170736  0.0014181529760151  0.2417149288704152
  0.8911951806037450  0.7804292883313764  0.7661101782727826
  0.6079673256498381  0.5013554291276066  0.7443383480385606
  0.6088268205897549  0.2802049904295529  0.2694252888247277
  0.1077359592663782  0.7793601596649680  0.2658867544172168
  0.3911581851418120  0.5004984355248183  0.2435949737544618
  0.1089388120753014  0.0005767579200864  0.7406228752482846
  0.3921031644525783  0.2793059730100964  0.7691432891977286
  0.7710499083595366  0.1210258538456372  0.2544302849225915
  0.7698540573955341  0.6610024386318543  0.7569802371488663
  0.7289651007073630  0.6211117549748550  0.7542469159781149
  0.7302229974300047  0.1609229397111349  0.2581306699319015
  0.2288503401145263  0.6597341566781694  0.2560158156989516
  0.2697459791108301  0.6198581617072136  0.2531274829144294
  0.2302197965335253  0.1198839495590605  0.7528372949524496
  0.2710441537090702  0.1597635907562918  0.7567414625448237
  0.9876248912480534  0.8907130220849666  0.0030199853189856
  0.0124007264496626  0.8903813547788246  0.5032089289146526
  0.5123529092267276  0.3904608425469007  0.5067313717627613
  0.4876565118140235  0.3902271316068777  0.0067492182935425
  0.3191651173895238  0.1130333235572110  0.2451649954681514
  0.7459398860255817  0.5443211133828783  0.2403052206304324
  0.7467787262558261  0.2380232547286170  0.7723760902888799
  0.7544431927121096  0.0439019799407063  0.7400830066796331
  0.7529469546467666  0.7377122982881303  0.2707191761094734
  0.6803731992000195  0.6674294564829495  0.2663409305493403
  0.1804569253023658  0.6133788859121196  0.7441513634258854
  0.1821232268261141  0.1665967850415697  0.2643890539644147
  0.8183837707827095  0.6147009377856776  0.2450939943118300
  0.2546381821687689  0.2368153493619829  0.2708555849160064
  0.2529393670258031  0.5430396753141125  0.7392142459372977
  0.2455007364342663  0.7364329730850514  0.7696693468754532
  0.3180855718777025  0.6661728910940568  0.7649128397687974
  0.6821061736760967  0.1142714619610530  0.7464885298521509
  0.8192387293220449  0.1677133697317785  0.7662642691462835
  0.2468599148141664  0.0426484889918228  0.2383314541412602
  0.5619035098082961  0.4942743112067589  0.0430141157982220
  0.4382644268638032  0.2862957948238574  0.4707626911097123
  0.3797145501929862  0.4730141458913408  0.9436251509749241
  0.1194740100633140  0.8064835075488119  0.5664621467134694
  0.0627585381858893  0.9941719738912695  0.0386431796565176
  0.3803844431597412  0.3064139373089034  0.0697879960539751
  0.8801800651396974  0.9744129559810659  0.9409401705639482
  0.9373732876764009  0.7867147669371235  0.4681284669646004
  0.1204246876376800  0.9731495665910685  0.4405338593996930
  0.6196143003428318  0.4742925117161434  0.4436470833613271
  0.5625854494992026  0.2865710404306512  0.9714507490743998
  0.9383150659585695  0.9943793520932900  0.5399355118601079
  0.6203726295861003  0.3076732972622764  0.5694164108166646
  0.4372513378595144  0.4940842642681034  0.5419343968101771
  0.0616077049964048  0.7863944444951088  0.9672968220661531
  0.8796679713768398  0.8080302767639935  0.0657947009656112
  0.9425924168511841  0.9374308546125150  0.1459953880804790
  0.9611592344697755  0.9441152720709880  0.3346275230200462
  0.9421551463275151  0.8444066564854396  0.8600275865991733
  0.5574337073132369  0.4371925804912351  0.6494660073308651
  0.5393374552820944  0.3370266606361554  0.1755852556214208
  0.0388242701377379  0.8369072638507618  0.1717883238817777
  0.5389936997171674  0.4438866772489618  0.8382198364450346
  0.5578036191005893  0.3440629055271458  0.3638941728907241
  0.4605837805763784  0.4436239494438965  0.3379420025102178
  0.0573201963623546  0.8436190023716392  0.3604744681279115
  0.0394543197105151  0.9437758422219602  0.8343702836239544
  0.4611056506358864  0.3367459762933365  0.6754542231708243
  0.9606026311237201  0.8372993215888513  0.6718349634479068
  0.0578882900274635  0.9367552354902031  0.6460327747970283
  0.4426036293891542  0.3434706995153860  0.8640851631581015
  0.4421988021955627  0.4366017126464499  0.1495055361488724
  0.8517653655074824  0.0414761583699814  0.2460841611501294
  0.8507873905697139  0.7404651066306300  0.7630060962487732
  0.6481556604822103  0.5415162996002678  0.7478722525715753
  0.6493034903810937  0.2403284693742265  0.2657589112947107
  0.1479311744824656  0.7392171907345073  0.2623292392150702
  0.3507068579435000  0.5404212797680117  0.2468272472935880
  0.1493943038604613  0.0404490041843744  0.7445232834696398
  0.3518615229303848  0.2392357264626739  0.7649695318831178
  0.8309291657275608  0.0009901711900540  0.5838908535153564
  0.8720836962987164  0.0832337396652960  0.9094222301978974
  0.8710681609950726  0.6993053283182817  0.1004131365580392
  0.6274990162253999  0.5830945672056842  0.4112484867169144
  0.6292559026008391  0.1989102500145563  0.6030126597179120
  0.1687300531602460  0.7792380726228174  0.9240399544796105
  0.6691514330261725  0.5014344106851354  0.0859603846470307
  0.6701977914613835  0.2807722905531804  0.9279674727967944
  0.3295154730293177  0.5000147559333001  0.5843465090411186
  0.1276385315586381  0.6978867641199500  0.5994960526995428
  0.1292116650933437  0.0820763573865833  0.4075659560554712
  0.3719303714273252  0.1976938203823906  0.1021586022469307
  0.8296759734767036  0.7806631324018340  0.4251041294677407
  0.1704667572746601  0.9997369719691918  0.0819037898309887
  0.3313139895240198  0.2794077126324339  0.4265084033743705
  0.3709729657717986  0.5817292521585458  0.9096516792157345
 
  0.00000000E+00  0.00000000E+00  0.00000000E+00
  0.00000000E+00  0.00000000E+00  0.00000000E+00
  0.00000000E+00  0.00000000E+00  0.00000000E+00
  0.00000000E+00  0.00000000E+00  0.00000000E+00
  0.00000000E+00  0.00000000E+00  0.00000000E+00
  0.00000000E+00  0.00000000E+00  0.00000000E+00
  0.00000000E+00  0.00000000E+00  0.00000000E+00
  0.00000000E+00  0.00000000E+00  0.00000000E+00
  0.00000000E+00  0.00000000E+00  0.00000000E+00
  0.00000000E+00  0.00000000E+00  0.00000000E+00
  0.00000000E+00  0.00000000E+00  0.00000000E+00
  0.00000000E+00  0.00000000E+00  0.00000000E+00
  0.00000000E+00  0.00000000E+00  0.00000000E+00
  0.00000000E+00  0.00000000E+00  0.00000000E+00
  0.00000000E+00  0.00000000E+00  0.00000000E+00
  0.00000000E+00  0.00000000E+00  0.00000000E+00
  0.00000000E+00  0.00000000E+00  0.00000000E+00
  0.00000000E+00  0.00000000E+00  0.00000000E+00
  0.00000000E+00  0.00000000E+00  0.00000000E+00
  0.00000000E+00  0.00000000E+00  0.00000000E+00
  0.00000000E+00  0.00000000E+00  0.00000000E+00
  0.00000000E+00  0.00000000E+00  0.00000000E+00
  0.00000000E+00  0.00000000E+00  0.00000000E+00
  0.00000000E+00  0.00000000E+00  0.00000000E+00
  0.00000000E+00  0.00000000E+00  0.00000000E+00
  0.00000000E+00  0.00000000E+00  0.00000000E+00
  0.00000000E+00  0.00000000E+00  0.00000000E+00
  0.00000000E+00  0.00000000E+00  0.00000000E+00
  0.00000000E+00  0.00000000E+00  0.00000000E+00
  0.00000000E+00  0.00000000E+00  0.00000000E+00
  0.00000000E+00  0.00000000E+00  0.00000000E+00
  0.00000000E+00  0.00000000E+00  0.00000000E+00
  0.00000000E+00  0.00000000E+00  0.00000000E+00
  0.00000000E+00  0.00000000E+00  0.00000000E+00
  0.00000000E+00  0.00000000E+00  0.00000000E+00
  0.00000000E+00  0.00000000E+00  0.00000000E+00
  0.00000000E+00  0.00000000E+00  0.00000000E+00
  0.00000000E+00  0.00000000E+00  0.00000000E+00
  0.00000000E+00  0.00000000E+00  0.00000000E+00
  0.00000000E+00  0.00000000E+00  0.00000000E+00
  0.00000000E+00  0.00000000E+00  0.00000000E+00
  0.00000000E+00  0.00000000E+00  0.00000000E+00
  0.00000000E+00  0.00000000E+00  0.00000000E+00
  0.00000000E+00  0.00000000E+00  0.00000000E+00
  0.00000000E+00  0.00000000E+00  0.00000000E+00
  0.00000000E+00  0.00000000E+00  0.00000000E+00
  0.00000000E+00  0.00000000E+00  0.00000000E+00
  0.00000000E+00  0.00000000E+00  0.00000000E+00
  0.00000000E+00  0.00000000E+00  0.00000000E+00
  0.00000000E+00  0.00000000E+00  0.00000000E+00
  0.00000000E+00  0.00000000E+00  0.00000000E+00
  0.00000000E+00  0.00000000E+00  0.00000000E+00
  0.00000000E+00  0.00000000E+00  0.00000000E+00
  0.00000000E+00  0.00000000E+00  0.00000000E+00
  0.00000000E+00  0.00000000E+00  0.00000000E+00
  0.00000000E+00  0.00000000E+00  0.00000000E+00
  0.00000000E+00  0.00000000E+00  0.00000000E+00
  0.00000000E+00  0.00000000E+00  0.00000000E+00
  0.00000000E+00  0.00000000E+00  0.00000000E+00
  0.00000000E+00  0.00000000E+00  0.00000000E+00
  0.00000000E+00  0.00000000E+00  0.00000000E+00
  0.00000000E+00  0.00000000E+00  0.00000000E+00
  0.00000000E+00  0.00000000E+00  0.00000000E+00
  0.00000000E+00  0.00000000E+00  0.00000000E+00
  0.00000000E+00  0.00000000E+00  0.00000000E+00
  0.00000000E+00  0.00000000E+00  0.00000000E+00
  0.00000000E+00  0.00000000E+00  0.00000000E+00
  0.00000000E+00  0.00000000E+00  0.00000000E+00
  0.00000000E+00  0.00000000E+00  0.00000000E+00
  0.00000000E+00  0.00000000E+00  0.00000000E+00
  0.00000000E+00  0.00000000E+00  0.00000000E+00
  0.00000000E+00  0.00000000E+00  0.00000000E+00
  0.00000000E+00  0.00000000E+00  0.00000000E+00
  0.00000000E+00  0.00000000E+00  0.00000000E+00
  0.00000000E+00  0.00000000E+00  0.00000000E+00
  0.00000000E+00  0.00000000E+00  0.00000000E+00
  0.00000000E+00  0.00000000E+00  0.00000000E+00
  0.00000000E+00  0.00000000E+00  0.00000000E+00
  0.00000000E+00  0.00000000E+00  0.00000000E+00
  0.00000000E+00  0.00000000E+00  0.00000000E+00
  0.00000000E+00  0.00000000E+00  0.00000000E+00
  0.00000000E+00  0.00000000E+00  0.00000000E+00
  0.00000000E+00  0.00000000E+00  0.00000000E+00
  0.00000000E+00  0.00000000E+00  0.00000000E+00
  0.00000000E+00  0.00000000E+00  0.00000000E+00
  0.00000000E+00  0.00000000E+00  0.00000000E+00
  0.00000000E+00  0.00000000E+00  0.00000000E+00
  0.00000000E+00  0.00000000E+00  0.00000000E+00
  0.00000000E+00  0.00000000E+00  0.00000000E+00
  0.00000000E+00  0.00000000E+00  0.00000000E+00
  0.00000000E+00  0.00000000E+00  0.00000000E+00
  0.00000000E+00  0.00000000E+00  0.00000000E+00
  0.00000000E+00  0.00000000E+00  0.00000000E+00
  0.00000000E+00  0.00000000E+00  0.00000000E+00
  0.00000000E+00  0.00000000E+00  0.00000000E+00
  0.00000000E+00  0.00000000E+00  0.00000000E+00
  0.00000000E+00  0.00000000E+00  0.00000000E+00
  0.00000000E+00  0.00000000E+00  0.00000000E+00
  0.00000000E+00  0.00000000E+00  0.00000000E+00
  0.00000000E+00  0.00000000E+00  0.00000000E+00
  0.00000000E+00  0.00000000E+00  0.00000000E+00
  0.00000000E+00  0.00000000E+00  0.00000000E+00
  0.00000000E+00  0.00000000E+00  0.00000000E+00
  0.00000000E+00  0.00000000E+00  0.00000000E+00
  0.00000000E+00  0.00000000E+00  0.00000000E+00
  0.00000000E+00  0.00000000E+00  0.00000000E+00
  0.00000000E+00  0.00000000E+00  0.00000000E+00
  0.00000000E+00  0.00000000E+00  0.00000000E+00
  0.00000000E+00  0.00000000E+00  0.00000000E+00
  0.00000000E+00  0.00000000E+00  0.00000000E+00
  0.00000000E+00  0.00000000E+00  0.00000000E+00
  0.00000000E+00  0.00000000E+00  0.00000000E+00
  0.00000000E+00  0.00000000E+00  0.00000000E+00
  0.00000000E+00  0.00000000E+00  0.00000000E+00
  0.00000000E+00  0.00000000E+00  0.00000000E+00
  0.00000000E+00  0.00000000E+00  0.00000000E+00
  0.00000000E+00  0.00000000E+00  0.00000000E+00
  0.00000000E+00  0.00000000E+00  0.00000000E+00
  0.00000000E+00  0.00000000E+00  0.00000000E+00
  0.00000000E+00  0.00000000E+00  0.00000000E+00
  0.00000000E+00  0.00000000E+00  0.00000000E+00
  0.00000000E+00  0.00000000E+00  0.00000000E+00
  0.00000000E+00  0.00000000E+00  0.00000000E+00
  0.00000000E+00  0.00000000E+00  0.00000000E+00
  0.00000000E+00  0.00000000E+00  0.00000000E+00
  0.00000000E+00  0.00000000E+00  0.00000000E+00
  0.00000000E+00  0.00000000E+00  0.00000000E+00
  0.00000000E+00  0.00000000E+00  0.00000000E+00
  0.00000000E+00  0.00000000E+00  0.00000000E+00
  0.00000000E+00  0.00000000E+00  0.00000000E+00
  0.00000000E+00  0.00000000E+00  0.00000000E+00
  0.00000000E+00  0.00000000E+00  0.00000000E+00
  0.00000000E+00  0.00000000E+00  0.00000000E+00
  0.00000000E+00  0.00000000E+00  0.00000000E+00
  0.00000000E+00  0.00000000E+00  0.00000000E+00
  0.00000000E+00  0.00000000E+00  0.00000000E+00
  0.00000000E+00  0.00000000E+00  0.00000000E+00
  0.00000000E+00  0.00000000E+00  0.00000000E+00
  0.00000000E+00  0.00000000E+00  0.00000000E+00
  0.00000000E+00  0.00000000E+00  0.00000000E+00
  0.00000000E+00  0.00000000E+00  0.00000000E+00
  0.00000000E+00  0.00000000E+00  0.00000000E+00
  0.00000000E+00  0.00000000E+00  0.00000000E+00
  0.00000000E+00  0.00000000E+00  0.00000000E+00
  0.00000000E+00  0.00000000E+00  0.00000000E+00
  0.00000000E+00  0.00000000E+00  0.00000000E+00
  0.00000000E+00  0.00000000E+00  0.00000000E+00
  0.00000000E+00  0.00000000E+00  0.00000000E+00
  0.00000000E+00  0.00000000E+00  0.00000000E+00
  0.00000000E+00  0.00000000E+00  0.00000000E+00
  0.00000000E+00  0.00000000E+00  0.00000000E+00
  0.00000000E+00  0.00000000E+00  0.00000000E+00
  0.00000000E+00  0.00000000E+00  0.00000000E+00
  0.00000000E+00  0.00000000E+00  0.00000000E+00
  0.00000000E+00  0.00000000E+00  0.00000000E+00
  0.00000000E+00  0.00000000E+00  0.00000000E+00
