FeH_exp1                                
   1.00000000000000     
    24.8893298073081155    0.0016756556174330   -0.0063309862894112
    -0.0006413896929646   24.7365158627283286    3.2847738467707757
    -0.0016834558672252    0.3537000939608136    6.8412077545744649
   C    Fe   H    N    O 
    80     4    32    24    16
Direct
  0.9038167560954449  0.9723702653119091  0.0897397455254065
  0.9290954400766509  0.9814233473085139  0.3939917224055236
  0.9034520375979724  0.8096055547992691  0.9169645906129347
  0.5960130852473071  0.4722765989908737  0.5927040069894076
  0.5715073307304408  0.2998160106627594  0.1173314130697634
  0.0707290454567371  0.7994799468579714  0.1131231201067351
  0.5710396412054664  0.4813160853217013  0.8971863596622782
  0.5965886972606071  0.3093437055295496  0.4212823581977290
  0.4283839026557459  0.4809344278276981  0.3962081266193280
  0.0958199123986745  0.8085242488918922  0.4175864345020273
  0.0716244446578145  0.9810066595149962  0.8936057094688010
  0.4292556271896117  0.2993781799087998  0.6162932700322514
  0.9284124161359415  0.8001288465568592  0.6129187761773949
  0.0967443067304572  0.9715023626430224  0.5897216063782906
  0.4041820356824459  0.3084108854632746  0.9206855876202908
  0.4034678245553636  0.4714067061450464  0.0920693706103890
  0.8221116696359587  0.0386564464789458  0.4255202739751240
  0.8439524256068367  0.0810176173227362  0.0719848644487229
  0.8434008282001884  0.7010667693315753  0.9375059265769679
  0.6555938769157166  0.5810411661281876  0.5733692678468358
  0.6568656008762801  0.2007397972753395  0.4409289137532113
  0.1775551720908766  0.7418453898599395  0.0833303306751390
  0.6779630071953875  0.5389235355559805  0.9267475611337588
  0.6786539879847950  0.2430018145521586  0.0872193142956519
  0.3211656169359927  0.5378808356167966  0.4253859648803271
  0.1554811560124207  0.6997451305431497  0.4368892359231964
  0.1571525660909643  0.0798889594776782  0.5704547775596893
  0.3443140065713663  0.1997181801539867  0.9391675766261969
  0.8212316612570874  0.7429699017289337  0.5836996337866864
  0.1788410381314165  0.0378147230441641  0.9245184005302249
  0.3222991484682964  0.2420714937660762  0.5856521010530855
  0.3430901503721699  0.5798416077907902  0.0715145760837643
  0.7797132269875959  0.0802391240016220  0.4248103453406102
  0.8019684124697193  0.1224379773786097  0.0809331011861900
  0.8013557766901727  0.6596205067393299  0.9298538940392973
  0.6977263856769795  0.6223941875006176  0.5809344163729975
  0.6988776506239915  0.1593230111587829  0.4321589404587201
  0.2200012813692851  0.7002735696736266  0.0849478794643801
  0.7203899835112750  0.5805303222517040  0.9248666935195544
  0.7210949095348624  0.2014788834045689  0.0881339660514158
  0.2786037067004301  0.5793524883726633  0.4234991191423276
  0.1975556974773269  0.6583418098519118  0.4289156874544489
  0.1991420113267850  0.1213141737330830  0.5792455061884638
  0.3023062664764566  0.1583027790470410  0.9303479443910163
  0.7787608902727499  0.7014096029386963  0.5857449936987678
  0.2213883571388635  0.0792642492565676  0.9233929551206117
  0.2799567088904453  0.2004438238754034  0.5864079315539854
  0.3010034614837522  0.6212330517670850  0.0794051338878674
  0.7484041791436127  0.0794985757301845  0.5938825109053454
  0.7926433789982283  0.1630756402214075  0.9156251343299289
  0.7921780006437942  0.6191581373822999  0.0958309842424114
  0.7069144890329184  0.6628403382724812  0.4149550765143175
  0.7082083069950755  0.1186760774667874  0.5974952418849568
  0.2514018453602560  0.7008457034533109  0.9162002700960272
  0.7519294758707318  0.5799709013454688  0.0933678553600430
  0.7524297776051156  0.2022328812827112  0.9191367878452823
  0.2471114912619043  0.5787015812604679  0.5920596682988446
  0.2068080376885533  0.6178277964925627  0.5946984064661507
  0.2084705591299354  0.1619022210753016  0.4138072233947767
  0.2930066866442615  0.1176990392042541  0.0957571720184660
  0.7472252647676001  0.7019701691899627  0.4172431738088065
  0.2527612376484996  0.0785547745518684  0.0923857421954679
  0.2486297932928920  0.2011220033294379  0.4173101331303855
  0.2916640161323869  0.6616836026799646  0.9135049593919859
  0.8923502544437554  0.0011049185337129  0.2427074690351390
  0.8917817973059599  0.7806772092718148  0.7647513799868548
  0.6075607726983918  0.5010937342481867  0.7453616115973603
  0.6082052837859138  0.2803967797934632  0.2691132622958960
  0.1072641592052719  0.7796554796038393  0.2650056739664066
  0.3917332725372233  0.5003294570288617  0.2442221339970629
  0.1084064003834442  0.0003600965243464  0.7421937431784187
  0.3926869919877447  0.2795910629742480  0.7679770814307716
  0.7708277953716021  0.1208796698079624  0.2546200812210699
  0.7700145847902249  0.6609819646353969  0.7566351870141261
  0.7291075815711068  0.6209930503287566  0.7540620887272453
  0.7299905551134884  0.1608711483166658  0.2583945257132285
  0.2288423668427981  0.6597880563502017  0.2556273698048130
  0.2697656026147612  0.6198239967346524  0.2527745102901946
  0.2302804554423261  0.1198240264274943  0.7530083545309978
  0.2711286862613136  0.1598216623665323  0.7566374003657685
  0.9897089722488914  0.8907003012468024  0.0031464841316833
  0.0103014898202005  0.8904964686456580  0.5031881640424132
  0.5102753635192911  0.3905359984739505  0.5066444962982146
  0.4898041618171902  0.3902848488881716  0.0066051014309352
  0.3176128962873861  0.1173118915631406  0.2275324044448297
  0.7442811086010934  0.5485083016288925  0.2229991319680664
  0.7446301848194992  0.2337917666414526  0.7899339607750306
  0.7561815838476633  0.0479140203477897  0.7230463852731290
  0.7549144495573472  0.7333837815260438  0.2875189537792835
  0.6821674473220014  0.6630916144305630  0.2836185948944987
  0.1821134865504277  0.6174948608446940  0.7261364174774272
  0.1839126258159922  0.1622201131021086  0.2819498791667741
  0.8168708289794750  0.6189358312220676  0.2273067404095173
  0.2563720136930101  0.2326730196637214  0.2880445144901032
  0.2548509602639513  0.5472227407377304  0.7215849540561834
  0.2436456430183469  0.7322765725607638  0.7865542241125141
  0.3162803195779915  0.6619207419616728  0.7819235747028443
  0.6836547688958134  0.1183000274587442  0.7293234625821299
  0.8172313626999284  0.1634678139351067  0.7838983372517703
  0.2449662969326525  0.0470298478452165  0.2216748399148543
  0.5661450210846795  0.4923427365679629  0.0419957195094085
  0.4342021526503146  0.2883496148669380  0.4715111142541488
  0.3851129190977503  0.4742265143975501  0.9468071925340666
  0.1141721567453331  0.8053908865692705  0.5630007145266021
  0.0667282800499294  0.9922097622802539  0.0381454430861297
  0.3858110861114668  0.3052862989458518  0.0659854516536100
  0.8853340912505629  0.9754733309019201  0.9445605445515639
  0.9332668414480310  0.7889443434688559  0.4683399944568407
  0.1152067277050861  0.9743216473086989  0.4446886071121270
  0.6143443553570336  0.4753878239075249  0.4473504285080736
  0.5666093026579873  0.2885866898525578  0.9728356083694720
  0.9341073213214557  0.9924210849494202  0.5388315520788467
  0.6150111659123922  0.3065078583400549  0.5664472798958755
  0.4332009690036429  0.4921644734371853  0.5407493542023616
  0.0657562197944230  0.7884136729861098  0.9683934658943230
  0.8850779623165224  0.8067279248684045  0.0621525391583333
  0.9447667843747638  0.9374992188871687  0.1475980845006717
  0.9603356705980701  0.9432051189623607  0.3353676673971222
  0.9444348293420859  0.8443317334943643  0.8583134324582389
  0.5552150395365558  0.4372951974233317  0.6511440576241299
  0.5401358571284121  0.3380735493111047  0.1749901351247019
  0.0396129513317263  0.8378929586367647  0.1711194580195539
  0.5398273817356838  0.4429835762937557  0.8390580845379816
  0.5555953862551917  0.3440818510685801  0.3625350797753129
  0.4598452038485661  0.4427190078241523  0.3386328574956465
  0.0550849071468633  0.8435955058976745  0.3589838518311552
  0.0401638217695037  0.9428658739553555  0.8354819317080739
  0.4604174329195274  0.3377283678215761  0.6744954514771422
  0.9598228106959823  0.8383570498701545  0.6707099705152615
  0.0556483379209851  0.9368736021736268  0.6479733538260319
  0.4449730740327524  0.3434157718785045  0.8623414169177295
  0.4444871842570564  0.4367210324429962  0.1509530951136142
  0.8519423874964929  0.0411783294836354  0.2466736673328924
  0.8512903432810575  0.7406348385413892  0.7620187118217387
  0.6479025748966194  0.5412748978145316  0.7484399294125765
  0.6487464258162063  0.2404264574987565  0.2658767205377259
  0.1475965542968467  0.7394665805100971  0.2617826547820741
  0.3511472833353153  0.5402869603666858  0.2469610748317095
  0.1489916110915672  0.0402777816599809  0.7456388627624975
  0.3522939164685042  0.2394865486644662  0.7642820360206102
  0.8315789369701818  0.0032796423994199  0.5716046417497225
  0.8708635427981193  0.0802473238394228  0.9219630764681810
  0.8704379255260193  0.7020835604720901  0.0871388898702321
  0.6283327310535896  0.5802328424088259  0.4241179556962180
  0.6300248760507117  0.2016231041530574  0.5910272730898498
  0.1682008930887662  0.7771251636500125  0.9368513730477375
  0.6686723670905579  0.5036656131766719  0.0733193147682627
  0.6691806174183412  0.2783467740198589  0.9410550001208478
  0.3306326322797304  0.5026926679500150  0.5720264138994651
  0.1284344844766210  0.7006367623475924  0.5865009500835257
  0.1303734107362686  0.0789458607920182  0.4201589006769737
  0.3712296946432261  0.2005814081727095  0.0892172740487496
  0.8305578197932988  0.7781722197677183  0.4370110753939258
  0.1692728550012816  0.0025939896083784  0.0709199584617366
  0.3315779131147707  0.2775383651348022  0.4397029251481328
  0.3700681330403270  0.5788964979604074  0.9217945108276524
 
  0.00000000E+00  0.00000000E+00  0.00000000E+00
  0.00000000E+00  0.00000000E+00  0.00000000E+00
  0.00000000E+00  0.00000000E+00  0.00000000E+00
  0.00000000E+00  0.00000000E+00  0.00000000E+00
  0.00000000E+00  0.00000000E+00  0.00000000E+00
  0.00000000E+00  0.00000000E+00  0.00000000E+00
  0.00000000E+00  0.00000000E+00  0.00000000E+00
  0.00000000E+00  0.00000000E+00  0.00000000E+00
  0.00000000E+00  0.00000000E+00  0.00000000E+00
  0.00000000E+00  0.00000000E+00  0.00000000E+00
  0.00000000E+00  0.00000000E+00  0.00000000E+00
  0.00000000E+00  0.00000000E+00  0.00000000E+00
  0.00000000E+00  0.00000000E+00  0.00000000E+00
  0.00000000E+00  0.00000000E+00  0.00000000E+00
  0.00000000E+00  0.00000000E+00  0.00000000E+00
  0.00000000E+00  0.00000000E+00  0.00000000E+00
  0.00000000E+00  0.00000000E+00  0.00000000E+00
  0.00000000E+00  0.00000000E+00  0.00000000E+00
  0.00000000E+00  0.00000000E+00  0.00000000E+00
  0.00000000E+00  0.00000000E+00  0.00000000E+00
  0.00000000E+00  0.00000000E+00  0.00000000E+00
  0.00000000E+00  0.00000000E+00  0.00000000E+00
  0.00000000E+00  0.00000000E+00  0.00000000E+00
  0.00000000E+00  0.00000000E+00  0.00000000E+00
  0.00000000E+00  0.00000000E+00  0.00000000E+00
  0.00000000E+00  0.00000000E+00  0.00000000E+00
  0.00000000E+00  0.00000000E+00  0.00000000E+00
  0.00000000E+00  0.00000000E+00  0.00000000E+00
  0.00000000E+00  0.00000000E+00  0.00000000E+00
  0.00000000E+00  0.00000000E+00  0.00000000E+00
  0.00000000E+00  0.00000000E+00  0.00000000E+00
  0.00000000E+00  0.00000000E+00  0.00000000E+00
  0.00000000E+00  0.00000000E+00  0.00000000E+00
  0.00000000E+00  0.00000000E+00  0.00000000E+00
  0.00000000E+00  0.00000000E+00  0.00000000E+00
  0.00000000E+00  0.00000000E+00  0.00000000E+00
  0.00000000E+00  0.00000000E+00  0.00000000E+00
  0.00000000E+00  0.00000000E+00  0.00000000E+00
  0.00000000E+00  0.00000000E+00  0.00000000E+00
  0.00000000E+00  0.00000000E+00  0.00000000E+00
  0.00000000E+00  0.00000000E+00  0.00000000E+00
  0.00000000E+00  0.00000000E+00  0.00000000E+00
  0.00000000E+00  0.00000000E+00  0.00000000E+00
  0.00000000E+00  0.00000000E+00  0.00000000E+00
  0.00000000E+00  0.00000000E+00  0.00000000E+00
  0.00000000E+00  0.00000000E+00  0.00000000E+00
  0.00000000E+00  0.00000000E+00  0.00000000E+00
  0.00000000E+00  0.00000000E+00  0.00000000E+00
  0.00000000E+00  0.00000000E+00  0.00000000E+00
  0.00000000E+00  0.00000000E+00  0.00000000E+00
  0.00000000E+00  0.00000000E+00  0.00000000E+00
  0.00000000E+00  0.00000000E+00  0.00000000E+00
  0.00000000E+00  0.00000000E+00  0.00000000E+00
  0.00000000E+00  0.00000000E+00  0.00000000E+00
  0.00000000E+00  0.00000000E+00  0.00000000E+00
  0.00000000E+00  0.00000000E+00  0.00000000E+00
  0.00000000E+00  0.00000000E+00  0.00000000E+00
  0.00000000E+00  0.00000000E+00  0.00000000E+00
  0.00000000E+00  0.00000000E+00  0.00000000E+00
  0.00000000E+00  0.00000000E+00  0.00000000E+00
  0.00000000E+00  0.00000000E+00  0.00000000E+00
  0.00000000E+00  0.00000000E+00  0.00000000E+00
  0.00000000E+00  0.00000000E+00  0.00000000E+00
  0.00000000E+00  0.00000000E+00  0.00000000E+00
  0.00000000E+00  0.00000000E+00  0.00000000E+00
  0.00000000E+00  0.00000000E+00  0.00000000E+00
  0.00000000E+00  0.00000000E+00  0.00000000E+00
  0.00000000E+00  0.00000000E+00  0.00000000E+00
  0.00000000E+00  0.00000000E+00  0.00000000E+00
  0.00000000E+00  0.00000000E+00  0.00000000E+00
  0.00000000E+00  0.00000000E+00  0.00000000E+00
  0.00000000E+00  0.00000000E+00  0.00000000E+00
  0.00000000E+00  0.00000000E+00  0.00000000E+00
  0.00000000E+00  0.00000000E+00  0.00000000E+00
  0.00000000E+00  0.00000000E+00  0.00000000E+00
  0.00000000E+00  0.00000000E+00  0.00000000E+00
  0.00000000E+00  0.00000000E+00  0.00000000E+00
  0.00000000E+00  0.00000000E+00  0.00000000E+00
  0.00000000E+00  0.00000000E+00  0.00000000E+00
  0.00000000E+00  0.00000000E+00  0.00000000E+00
  0.00000000E+00  0.00000000E+00  0.00000000E+00
  0.00000000E+00  0.00000000E+00  0.00000000E+00
  0.00000000E+00  0.00000000E+00  0.00000000E+00
  0.00000000E+00  0.00000000E+00  0.00000000E+00
  0.00000000E+00  0.00000000E+00  0.00000000E+00
  0.00000000E+00  0.00000000E+00  0.00000000E+00
  0.00000000E+00  0.00000000E+00  0.00000000E+00
  0.00000000E+00  0.00000000E+00  0.00000000E+00
  0.00000000E+00  0.00000000E+00  0.00000000E+00
  0.00000000E+00  0.00000000E+00  0.00000000E+00
  0.00000000E+00  0.00000000E+00  0.00000000E+00
  0.00000000E+00  0.00000000E+00  0.00000000E+00
  0.00000000E+00  0.00000000E+00  0.00000000E+00
  0.00000000E+00  0.00000000E+00  0.00000000E+00
  0.00000000E+00  0.00000000E+00  0.00000000E+00
  0.00000000E+00  0.00000000E+00  0.00000000E+00
  0.00000000E+00  0.00000000E+00  0.00000000E+00
  0.00000000E+00  0.00000000E+00  0.00000000E+00
  0.00000000E+00  0.00000000E+00  0.00000000E+00
  0.00000000E+00  0.00000000E+00  0.00000000E+00
  0.00000000E+00  0.00000000E+00  0.00000000E+00
  0.00000000E+00  0.00000000E+00  0.00000000E+00
  0.00000000E+00  0.00000000E+00  0.00000000E+00
  0.00000000E+00  0.00000000E+00  0.00000000E+00
  0.00000000E+00  0.00000000E+00  0.00000000E+00
  0.00000000E+00  0.00000000E+00  0.00000000E+00
  0.00000000E+00  0.00000000E+00  0.00000000E+00
  0.00000000E+00  0.00000000E+00  0.00000000E+00
  0.00000000E+00  0.00000000E+00  0.00000000E+00
  0.00000000E+00  0.00000000E+00  0.00000000E+00
  0.00000000E+00  0.00000000E+00  0.00000000E+00
  0.00000000E+00  0.00000000E+00  0.00000000E+00
  0.00000000E+00  0.00000000E+00  0.00000000E+00
  0.00000000E+00  0.00000000E+00  0.00000000E+00
  0.00000000E+00  0.00000000E+00  0.00000000E+00
  0.00000000E+00  0.00000000E+00  0.00000000E+00
  0.00000000E+00  0.00000000E+00  0.00000000E+00
  0.00000000E+00  0.00000000E+00  0.00000000E+00
  0.00000000E+00  0.00000000E+00  0.00000000E+00
  0.00000000E+00  0.00000000E+00  0.00000000E+00
  0.00000000E+00  0.00000000E+00  0.00000000E+00
  0.00000000E+00  0.00000000E+00  0.00000000E+00
  0.00000000E+00  0.00000000E+00  0.00000000E+00
  0.00000000E+00  0.00000000E+00  0.00000000E+00
  0.00000000E+00  0.00000000E+00  0.00000000E+00
  0.00000000E+00  0.00000000E+00  0.00000000E+00
  0.00000000E+00  0.00000000E+00  0.00000000E+00
  0.00000000E+00  0.00000000E+00  0.00000000E+00
  0.00000000E+00  0.00000000E+00  0.00000000E+00
  0.00000000E+00  0.00000000E+00  0.00000000E+00
  0.00000000E+00  0.00000000E+00  0.00000000E+00
  0.00000000E+00  0.00000000E+00  0.00000000E+00
  0.00000000E+00  0.00000000E+00  0.00000000E+00
  0.00000000E+00  0.00000000E+00  0.00000000E+00
  0.00000000E+00  0.00000000E+00  0.00000000E+00
  0.00000000E+00  0.00000000E+00  0.00000000E+00
  0.00000000E+00  0.00000000E+00  0.00000000E+00
  0.00000000E+00  0.00000000E+00  0.00000000E+00
  0.00000000E+00  0.00000000E+00  0.00000000E+00
  0.00000000E+00  0.00000000E+00  0.00000000E+00
  0.00000000E+00  0.00000000E+00  0.00000000E+00
  0.00000000E+00  0.00000000E+00  0.00000000E+00
  0.00000000E+00  0.00000000E+00  0.00000000E+00
  0.00000000E+00  0.00000000E+00  0.00000000E+00
  0.00000000E+00  0.00000000E+00  0.00000000E+00
  0.00000000E+00  0.00000000E+00  0.00000000E+00
  0.00000000E+00  0.00000000E+00  0.00000000E+00
  0.00000000E+00  0.00000000E+00  0.00000000E+00
  0.00000000E+00  0.00000000E+00  0.00000000E+00
  0.00000000E+00  0.00000000E+00  0.00000000E+00
  0.00000000E+00  0.00000000E+00  0.00000000E+00
  0.00000000E+00  0.00000000E+00  0.00000000E+00
  0.00000000E+00  0.00000000E+00  0.00000000E+00
  0.00000000E+00  0.00000000E+00  0.00000000E+00
  0.00000000E+00  0.00000000E+00  0.00000000E+00
  0.00000000E+00  0.00000000E+00  0.00000000E+00
