FeH_exp1                                
   1.00000000000000     
    23.9834719186009764   -0.0005608600661983    0.0070584469016048
    -0.0010314210406400   25.7928710837450765    3.9056172757212053
     0.0017865338180919    0.6706248651563224    6.0299830023865244
   C    Fe   H    N    O 
    80     4    32    24    16
Direct
  0.8933407817338122  0.9694458109071036  0.0878254814468349
  0.9333035165213346  0.9843261920369244  0.3981815217519298
  0.8922562194259598  0.8129850685337914  0.9180089766087889
  0.6064654209173597  0.4692774021606780  0.5908292972231521
  0.5681430268801719  0.2970389374037978  0.1140572568579472
  0.0664500596441471  0.7965981786716156  0.1069913952343668
  0.5667749089684193  0.4840939914471889  0.9020278064301337
  0.6076379346243570  0.3125397848752911  0.4241634058119672
  0.4323632374519804  0.4835306961728918  0.4016179810054368
  0.1061968274569978  0.8111118064749903  0.4184557806172577
  0.0676566114048498  0.9837553865653703  0.8970823744336442
  0.4333232533132261  0.2963293681178740  0.6131282041358759
  0.9318684268785447  0.7975310771456421  0.6078781473725101
  0.1075266260896868  0.9683634458124359  0.5873100299888065
  0.3935501414662781  0.3109318919783632  0.9245755194724339
  0.3928236190885741  0.4682818201078547  0.0911176790065298
  0.8160343536672841  0.0338476003512014  0.4445054789825988
  0.8459901663692904  0.0842661288846287  0.0501068902172079
  0.8444008489936365  0.6982674830478075  0.9588437619373238
  0.6536603756014401  0.5841722727058354  0.5509811161124816
  0.6558235166440980  0.1978279680663135  0.4642216461026223
  0.1836101835315560  0.7465428973968855  0.0627256532741569
  0.6839324811107090  0.5340855427660713  0.9453018979895091
  0.6857261266654220  0.2482106897869159  0.0695983606454007
  0.3149822458566689  0.5330288774023160  0.4448249907767376
  0.1533663935730942  0.6963417040837996  0.4570045720017291
  0.1553363816389108  0.0831906895749555  0.5484291161212198
  0.3461524453950062  0.1961003959330512  0.9615390628876170
  0.8142280890263791  0.7483413742147320  0.5642906377101227
  0.1853049428941205  0.0326131727186194  0.9424769454371287
  0.3161544816302921  0.2467268645543257  0.5676455084812844
  0.3451800675963881  0.5831390437053230  0.0502508059970452
  0.7746725733033344  0.0758427878677637  0.4438464549092558
  0.8054517451007257  0.1262461513763569  0.0611234117707156
  0.8036945635036545  0.6562973476437577  0.9495220508149274
  0.6942781662474360  0.6262063174969796  0.5604259114523558
  0.6964494744766867  0.1559096626782264  0.4533170151816250
  0.2252592561775728  0.7046674586866004  0.0650284086831761
  0.7253372125685331  0.5761530242064339  0.9430795703570354
  0.7272058743812693  0.2062842133674536  0.0705489904953183
  0.2732329971522631  0.5748298623272490  0.4420729215405643
  0.1942370261301321  0.6545071259229260  0.4477227531033847
  0.1961305371852688  0.1250007473548749  0.5590725404751637
  0.3055190928510427  0.1542083302780171  0.9504254601621582
  0.7726896850031579  0.7063533760495275  0.5667679288450103
  0.2269373856124943  0.0744097078360468  0.9413452921450869
  0.2747054987373616  0.2047945297840883  0.5682430202953626
  0.3042415617217742  0.6249495329843953  0.0592466185941447
  0.7394407585753768  0.0711012244237921  0.6308553473366487
  0.8013206562041830  0.1712881487919731  0.8789018179655983
  0.7996202253623750  0.6114255486841316  0.1325682772255874
  0.6983277914001604  0.6711068733796282  0.3775020062252921
  0.7005997630678920  0.1108920734295751  0.6355793449118750
  0.2607691174024964  0.7093712417447193  0.8788867715823585
  0.7607044226147650  0.5715956779009375  0.1293936328105403
  0.7624518191111989  0.2110539848856661  0.8835803621457146
  0.2376875197827459  0.5701054785573163  0.6281105440601991
  0.1984398719831191  0.6096842996728853  0.6308774381917743
  0.2004022401708099  0.1700398665195451  0.3768750918367729
  0.3013576346646545  0.1091072265342063  0.1323292043036872
  0.7372726138311521  0.7109222172188296  0.3806159198129251
  0.2623189650612616  0.0694632513178064  0.1278712249604368
  0.2394258762226400  0.2096918946099677  0.3814321145422213
  0.2999934082188815  0.6697680928775540  0.8760606077397384
  0.8895182832111601  0.0006517501812056  0.2435657143344585
  0.8880674879867883  0.7816199401053723  0.7630607653027965
  0.6103515398612203  0.5005556074844222  0.7462582859720115
  0.6118635626031121  0.2811296370335867  0.2694039506506485
  0.1100007855591016  0.7799539279530876  0.2624964667791971
  0.3887736618549482  0.4997132680794323  0.2459131878661367
  0.1115079010215752  0.9997410918114227  0.7422927130532315
  0.3896886498861960  0.2797995490063556  0.7685549772838840
  0.7707794638846224  0.1208121813043661  0.2549316465480942
  0.7688479421237489  0.6615448223570866  0.7564934790575393
  0.7291345779291092  0.6209686308120013  0.7534250538493197
  0.7311339985959009  0.1613355725473724  0.2595348912927591
  0.2292317000728943  0.6599062399944060  0.2548680771693128
  0.2692490619878356  0.6195575994153799  0.2521026009458680
  0.2309143473351227  0.1193997965509652  0.7525309137577878
  0.2707308794840841  0.1598007959537568  0.7570105761975015
  0.9836444891050320  0.8907080373486025  0.0024486307755183
  0.0163044692203229  0.8903621405748794  0.5025740711022308
  0.5161842660832932  0.3903114090999082  0.5079259262349325
  0.4838639128381601  0.3899711131633552  0.0081349484687010
  0.3288160452884483  0.1058167605739655  0.2783809641733512
  0.7570487054897086  0.5365318872680191  0.2724151074822458
  0.7586955944861131  0.2462223703530242  0.7411591185435498
  0.7431541574226301  0.0359089850204484  0.7732033754307466
  0.7409212772887273  0.7459799964719522  0.2375870981243224
  0.6708813140245695  0.6740986352466933  0.2316237645394992
  0.1708528272409637  0.6065706832716771  0.7765278953806316
  0.1730265911941586  0.1732913559303171  0.2306023918299900
  0.8270450854462652  0.6084702400384927  0.2784763709472671
  0.2432229583236492  0.2448896350643750  0.2391340623738571
  0.2414935553385362  0.5351059851438293  0.7713255253785078
  0.2569955239572934  0.7443867026884661  0.7357387316389108
  0.3275405366563717  0.6728817757411250  0.7302711624912277
  0.6732792777022709  0.1077570699449808  0.7820645436158529
  0.8286382988065313  0.1744216089085668  0.7323927528915206
  0.2585554532181007  0.0342367459888138  0.2700534451946339
  0.5549410695535215  0.4979152806203260  0.0495265056211380
  0.4451787887881125  0.2826184489571375  0.4653468424422229
  0.3676709734787380  0.4686341320509300  0.9417136307916181
  0.1314075321503623  0.8104195054628107  0.5680569853536994
  0.0558214117265479  0.9977817352576466  0.0440601085205756
  0.3683136250449834  0.3102948900329565  0.0741709809102744
  0.8680212421689291  0.9699419429705358  0.9387178869364519
  0.9435750179776647  0.7834565182647566  0.4608843272638055
  0.1328536092902155  0.9686119036061172  0.4383740818804966
  0.6316435307431263  0.4698386080319636  0.4411660813962826
  0.5565178663743851  0.2829544378061613  0.9670464355085926
  0.9452330738029175  0.9981510498301560  0.5455166472374913
  0.6328038555117175  0.3123784868462067  0.5733299927630782
  0.4440968068346649  0.4975217807843535  0.5487327082082203
  0.0545756424876629  0.7829192025003309  0.9592104307631857
  0.8670663402443850  0.8127787027863036  0.0672741170573161
  0.9369510034691970  0.9361438179717183  0.1481547567776147
  0.9615914732173536  0.9453925042328919  0.3381664609698731
  0.9360872741894539  0.8459943782527972  0.8566778436480220
  0.5630237304811629  0.4358038948448382  0.6524466403121210
  0.5394975638883395  0.3359313339216428  0.1727548042113014
  0.0383238742070517  0.8356593989239656  0.1667410797311533
  0.5385540985337158  0.4450055655659853  0.8429706072236058
  0.5638404174185254  0.3455586196557547  0.3626191933243845
  0.4607557539693943  0.4444698093775230  0.3430814497479773
  0.0628368159641681  0.8446893373845299  0.3574185041205027
  0.0391744170174348  0.9448437287265747  0.8378778705094732
  0.4615525966275627  0.3353072379011905  0.6729340625994098
  0.9605091590216404  0.8363879561117713  0.6668339453001764
  0.0637459916018273  0.9352681353970169  0.6482271447110222
  0.4370401070495831  0.3443892070746344  0.8636215341681321
  0.4363851591732839  0.4349874311326758  0.1530065112317658
  0.8494522427495639  0.0406645205497114  0.2461812226811659
  0.8477755187885663  0.7417042285226074  0.7620309842783684
  0.6503519144144860  0.5407000544968028  0.7476663473070033
  0.6522311071048605  0.2413212396732618  0.2677697186757797
  0.1499971276652090  0.7398358490530086  0.2604682955937321
  0.3485683713641876  0.5397005958823087  0.2470215292356457
  0.1518101022890974  0.0395773003241970  0.7444371019083462
  0.3496224493050164  0.2397864601183315  0.7657801936134874
  0.8215732476438049  0.9944460672105038  0.6061264496620780
  0.8755282344279465  0.0861670888983781  0.8824446321469637
  0.8741499558461001  0.6964789855480973  0.1256811771695183
  0.6239404590254338  0.5859211539435663  0.3841042373159027
  0.6263004946023614  0.1959594028487786  0.6319125409726354
  0.1780207770920157  0.7857689530993284  0.9003458615975219
  0.6784839399087517  0.4948087096443317  0.1075810188213779
  0.6800774556445148  0.2875736064163306  0.9078957489544379
  0.3206973699681370  0.4939070129817793  0.6075775683335038
  0.1235342061153233  0.6944225216328377  0.6238504363305992
  0.1256504207032307  0.0852480462841640  0.3811815648822261
  0.3757269768951019  0.1940797892775663  0.1290832012843310
  0.8198462627964105  0.7875409554064561  0.4017724567107805
  0.1795459204780201  0.9932759514991716  0.1042730412711208
  0.3217184230987868  0.2861927914646643  0.4063113291515563
  0.3750713543076429  0.5850426943973872  0.8835930158401339
 
  0.00000000E+00  0.00000000E+00  0.00000000E+00
  0.00000000E+00  0.00000000E+00  0.00000000E+00
  0.00000000E+00  0.00000000E+00  0.00000000E+00
  0.00000000E+00  0.00000000E+00  0.00000000E+00
  0.00000000E+00  0.00000000E+00  0.00000000E+00
  0.00000000E+00  0.00000000E+00  0.00000000E+00
  0.00000000E+00  0.00000000E+00  0.00000000E+00
  0.00000000E+00  0.00000000E+00  0.00000000E+00
  0.00000000E+00  0.00000000E+00  0.00000000E+00
  0.00000000E+00  0.00000000E+00  0.00000000E+00
  0.00000000E+00  0.00000000E+00  0.00000000E+00
  0.00000000E+00  0.00000000E+00  0.00000000E+00
  0.00000000E+00  0.00000000E+00  0.00000000E+00
  0.00000000E+00  0.00000000E+00  0.00000000E+00
  0.00000000E+00  0.00000000E+00  0.00000000E+00
  0.00000000E+00  0.00000000E+00  0.00000000E+00
  0.00000000E+00  0.00000000E+00  0.00000000E+00
  0.00000000E+00  0.00000000E+00  0.00000000E+00
  0.00000000E+00  0.00000000E+00  0.00000000E+00
  0.00000000E+00  0.00000000E+00  0.00000000E+00
  0.00000000E+00  0.00000000E+00  0.00000000E+00
  0.00000000E+00  0.00000000E+00  0.00000000E+00
  0.00000000E+00  0.00000000E+00  0.00000000E+00
  0.00000000E+00  0.00000000E+00  0.00000000E+00
  0.00000000E+00  0.00000000E+00  0.00000000E+00
  0.00000000E+00  0.00000000E+00  0.00000000E+00
  0.00000000E+00  0.00000000E+00  0.00000000E+00
  0.00000000E+00  0.00000000E+00  0.00000000E+00
  0.00000000E+00  0.00000000E+00  0.00000000E+00
  0.00000000E+00  0.00000000E+00  0.00000000E+00
  0.00000000E+00  0.00000000E+00  0.00000000E+00
  0.00000000E+00  0.00000000E+00  0.00000000E+00
  0.00000000E+00  0.00000000E+00  0.00000000E+00
  0.00000000E+00  0.00000000E+00  0.00000000E+00
  0.00000000E+00  0.00000000E+00  0.00000000E+00
  0.00000000E+00  0.00000000E+00  0.00000000E+00
  0.00000000E+00  0.00000000E+00  0.00000000E+00
  0.00000000E+00  0.00000000E+00  0.00000000E+00
  0.00000000E+00  0.00000000E+00  0.00000000E+00
  0.00000000E+00  0.00000000E+00  0.00000000E+00
  0.00000000E+00  0.00000000E+00  0.00000000E+00
  0.00000000E+00  0.00000000E+00  0.00000000E+00
  0.00000000E+00  0.00000000E+00  0.00000000E+00
  0.00000000E+00  0.00000000E+00  0.00000000E+00
  0.00000000E+00  0.00000000E+00  0.00000000E+00
  0.00000000E+00  0.00000000E+00  0.00000000E+00
  0.00000000E+00  0.00000000E+00  0.00000000E+00
  0.00000000E+00  0.00000000E+00  0.00000000E+00
  0.00000000E+00  0.00000000E+00  0.00000000E+00
  0.00000000E+00  0.00000000E+00  0.00000000E+00
  0.00000000E+00  0.00000000E+00  0.00000000E+00
  0.00000000E+00  0.00000000E+00  0.00000000E+00
  0.00000000E+00  0.00000000E+00  0.00000000E+00
  0.00000000E+00  0.00000000E+00  0.00000000E+00
  0.00000000E+00  0.00000000E+00  0.00000000E+00
  0.00000000E+00  0.00000000E+00  0.00000000E+00
  0.00000000E+00  0.00000000E+00  0.00000000E+00
  0.00000000E+00  0.00000000E+00  0.00000000E+00
  0.00000000E+00  0.00000000E+00  0.00000000E+00
  0.00000000E+00  0.00000000E+00  0.00000000E+00
  0.00000000E+00  0.00000000E+00  0.00000000E+00
  0.00000000E+00  0.00000000E+00  0.00000000E+00
  0.00000000E+00  0.00000000E+00  0.00000000E+00
  0.00000000E+00  0.00000000E+00  0.00000000E+00
  0.00000000E+00  0.00000000E+00  0.00000000E+00
  0.00000000E+00  0.00000000E+00  0.00000000E+00
  0.00000000E+00  0.00000000E+00  0.00000000E+00
  0.00000000E+00  0.00000000E+00  0.00000000E+00
  0.00000000E+00  0.00000000E+00  0.00000000E+00
  0.00000000E+00  0.00000000E+00  0.00000000E+00
  0.00000000E+00  0.00000000E+00  0.00000000E+00
  0.00000000E+00  0.00000000E+00  0.00000000E+00
  0.00000000E+00  0.00000000E+00  0.00000000E+00
  0.00000000E+00  0.00000000E+00  0.00000000E+00
  0.00000000E+00  0.00000000E+00  0.00000000E+00
  0.00000000E+00  0.00000000E+00  0.00000000E+00
  0.00000000E+00  0.00000000E+00  0.00000000E+00
  0.00000000E+00  0.00000000E+00  0.00000000E+00
  0.00000000E+00  0.00000000E+00  0.00000000E+00
  0.00000000E+00  0.00000000E+00  0.00000000E+00
  0.00000000E+00  0.00000000E+00  0.00000000E+00
  0.00000000E+00  0.00000000E+00  0.00000000E+00
  0.00000000E+00  0.00000000E+00  0.00000000E+00
  0.00000000E+00  0.00000000E+00  0.00000000E+00
  0.00000000E+00  0.00000000E+00  0.00000000E+00
  0.00000000E+00  0.00000000E+00  0.00000000E+00
  0.00000000E+00  0.00000000E+00  0.00000000E+00
  0.00000000E+00  0.00000000E+00  0.00000000E+00
  0.00000000E+00  0.00000000E+00  0.00000000E+00
  0.00000000E+00  0.00000000E+00  0.00000000E+00
  0.00000000E+00  0.00000000E+00  0.00000000E+00
  0.00000000E+00  0.00000000E+00  0.00000000E+00
  0.00000000E+00  0.00000000E+00  0.00000000E+00
  0.00000000E+00  0.00000000E+00  0.00000000E+00
  0.00000000E+00  0.00000000E+00  0.00000000E+00
  0.00000000E+00  0.00000000E+00  0.00000000E+00
  0.00000000E+00  0.00000000E+00  0.00000000E+00
  0.00000000E+00  0.00000000E+00  0.00000000E+00
  0.00000000E+00  0.00000000E+00  0.00000000E+00
  0.00000000E+00  0.00000000E+00  0.00000000E+00
  0.00000000E+00  0.00000000E+00  0.00000000E+00
  0.00000000E+00  0.00000000E+00  0.00000000E+00
  0.00000000E+00  0.00000000E+00  0.00000000E+00
  0.00000000E+00  0.00000000E+00  0.00000000E+00
  0.00000000E+00  0.00000000E+00  0.00000000E+00
  0.00000000E+00  0.00000000E+00  0.00000000E+00
  0.00000000E+00  0.00000000E+00  0.00000000E+00
  0.00000000E+00  0.00000000E+00  0.00000000E+00
  0.00000000E+00  0.00000000E+00  0.00000000E+00
  0.00000000E+00  0.00000000E+00  0.00000000E+00
  0.00000000E+00  0.00000000E+00  0.00000000E+00
  0.00000000E+00  0.00000000E+00  0.00000000E+00
  0.00000000E+00  0.00000000E+00  0.00000000E+00
  0.00000000E+00  0.00000000E+00  0.00000000E+00
  0.00000000E+00  0.00000000E+00  0.00000000E+00
  0.00000000E+00  0.00000000E+00  0.00000000E+00
  0.00000000E+00  0.00000000E+00  0.00000000E+00
  0.00000000E+00  0.00000000E+00  0.00000000E+00
  0.00000000E+00  0.00000000E+00  0.00000000E+00
  0.00000000E+00  0.00000000E+00  0.00000000E+00
  0.00000000E+00  0.00000000E+00  0.00000000E+00
  0.00000000E+00  0.00000000E+00  0.00000000E+00
  0.00000000E+00  0.00000000E+00  0.00000000E+00
  0.00000000E+00  0.00000000E+00  0.00000000E+00
  0.00000000E+00  0.00000000E+00  0.00000000E+00
  0.00000000E+00  0.00000000E+00  0.00000000E+00
  0.00000000E+00  0.00000000E+00  0.00000000E+00
  0.00000000E+00  0.00000000E+00  0.00000000E+00
  0.00000000E+00  0.00000000E+00  0.00000000E+00
  0.00000000E+00  0.00000000E+00  0.00000000E+00
  0.00000000E+00  0.00000000E+00  0.00000000E+00
  0.00000000E+00  0.00000000E+00  0.00000000E+00
  0.00000000E+00  0.00000000E+00  0.00000000E+00
  0.00000000E+00  0.00000000E+00  0.00000000E+00
  0.00000000E+00  0.00000000E+00  0.00000000E+00
  0.00000000E+00  0.00000000E+00  0.00000000E+00
  0.00000000E+00  0.00000000E+00  0.00000000E+00
  0.00000000E+00  0.00000000E+00  0.00000000E+00
  0.00000000E+00  0.00000000E+00  0.00000000E+00
  0.00000000E+00  0.00000000E+00  0.00000000E+00
  0.00000000E+00  0.00000000E+00  0.00000000E+00
  0.00000000E+00  0.00000000E+00  0.00000000E+00
  0.00000000E+00  0.00000000E+00  0.00000000E+00
  0.00000000E+00  0.00000000E+00  0.00000000E+00
  0.00000000E+00  0.00000000E+00  0.00000000E+00
  0.00000000E+00  0.00000000E+00  0.00000000E+00
  0.00000000E+00  0.00000000E+00  0.00000000E+00
  0.00000000E+00  0.00000000E+00  0.00000000E+00
  0.00000000E+00  0.00000000E+00  0.00000000E+00
  0.00000000E+00  0.00000000E+00  0.00000000E+00
  0.00000000E+00  0.00000000E+00  0.00000000E+00
  0.00000000E+00  0.00000000E+00  0.00000000E+00
  0.00000000E+00  0.00000000E+00  0.00000000E+00
  0.00000000E+00  0.00000000E+00  0.00000000E+00
  0.00000000E+00  0.00000000E+00  0.00000000E+00
  0.00000000E+00  0.00000000E+00  0.00000000E+00
