CoH_5	                                  
   1.00000000000000     
    22.8925740628806409    0.0001720258191594   -0.0024711762929246
     0.0007980172635978   26.0930340634250939    4.6587974677257940
    -0.0001744766922861    0.8628458674008637    6.1194041620542059
   C    Co   H    N    O 
    80     4    32    24    16
Direct
  0.8880566834410999  0.9644434205207446  0.1222111278024585
  0.9378524644780910  0.9827838906145701  0.3999678868980752
  0.8880627017236051  0.8156018852020850  0.9318790190169537
  0.6116728992193217  0.4644277082573183  0.6210397324431369
  0.5619762504535757  0.2972329468620813  0.1535588294950188
  0.0619437266949063  0.7972469780556963  0.1540430953865979
  0.5619437090959849  0.4829220260353324  0.8985442004033075
  0.6117163564487385  0.3157182722912850  0.4310811136990864
  0.4378955201801134  0.4829976343053133  0.3982819400301310
  0.1117643510715851  0.8156795367385428  0.4314926302158426
  0.0619754258257714  0.9827879803145976  0.8998444971302249
  0.4378185838672266  0.2971708016281127  0.6537754078016036
  0.9378531415519262  0.7971278384995983  0.6545170577514909
  0.1117452851449201  0.9643194519748519  0.6223755385963230
  0.3880509640401399  0.3156579439111837  0.9311746257210700
  0.3881951523462561  0.4645890319502186  0.1204763558105526
  0.8142763204445629  0.0299442664396494  0.4627535987326610
  0.8445683875694741  0.0827389033687993  0.0656931029308296
  0.8443260510325601  0.6973203909736085  0.9882019486264255
  0.6554570521853265  0.5826991894364753  0.5642179989710030
  0.6555284584651346  0.1975286784606283  0.4879132067087255
  0.1857319497320304  0.7504098815068261  0.0905165162964110
  0.6856481041937670  0.5298083707951733  0.9613237407696431
  0.6858664952624665  0.2503567623007896  0.0910228514304450
  0.3143185279349581  0.5300375307342691  0.4608074314793811
  0.1555329778595151  0.6974779755648086  0.4874383568256206
  0.1553818081762302  0.0825660258892000  0.5657342562664311
  0.3443495941129484  0.1973847417158652  0.9882181934985255
  0.8141319114064629  0.7502064983303782  0.5911617603905910
  0.1856486728970026  0.0297670464277431  0.9628994456595308
  0.3140295359219536  0.2501840859441060  0.5912369324317268
  0.3444790755506801  0.5829035398402951  0.0636748544325201
  0.7732426592818271  0.0730460771740411  0.4640575191417113
  0.8042370932228593  0.1255422430865991  0.0773558375398693
  0.8039936854514238  0.6545659490579681  0.9760105509603392
  0.6958486164856694  0.6254289298805631  0.5761788634462235
  0.6959455706044295  0.1547973866346766  0.4762961710626001
  0.2268217291519790  0.7073660000554867  0.0887488579339006
  0.7267420984125721  0.5728449485771065  0.9629004864370287
  0.7269809204430828  0.2073027060139410  0.0897232607368750
  0.2732323290600505  0.5730806499689436  0.4623546706923634
  0.1959323823977783  0.6547682290792523  0.4753542782242093
  0.1957292851035390  0.1253437710461398  0.5774330111207036
  0.3039862907728761  0.1546186889785872  0.9764846953261852
  0.7730628123677690  0.7071511776639809  0.5893988764270048
  0.2266966439695182  0.0728560447028528  0.9642360176205997
  0.2729808379372756  0.2070945408419647  0.5898283498074193
  0.3041119474375122  0.6256581383749023  0.0756502064596134
  0.7384405264949194  0.0678700293080396  0.6540489192611076
  0.8002716302678579  0.1717569814216588  0.8934561957695095
  0.7999538755755111  0.6083355296525568  0.1597453033747982
  0.6998679150439244  0.6716683433677986  0.3924300212623280
  0.6999677162191560  0.1086153171070308  0.6602703497347662
  0.2615938835100735  0.7126144106878058  0.8985659561882997
  0.7615142819507739  0.5676034840147537  0.1530716133259702
  0.7618338227608490  0.2125282877743189  0.8998024864020948
  0.2384663890021343  0.5678323209147607  0.6525000824336473
  0.1999886700748021  0.6085413406427236  0.6591070932987435
  0.1997090101656482  0.1715421107911936  0.3934933417543931
  0.2999398201477419  0.1084508229344721  0.1605449494879494
  0.7382777281547774  0.7124172054350737  0.3992028925850946
  0.2614677353615633  0.0677059085648679  0.1543224989770664
  0.2381459712551504  0.2123073531441833  0.3998330008187096
  0.3000549839768212  0.6718882211237158  0.8918670315303530
  0.8886543532090840  0.9974064635141957  0.2605685063700065
  0.8886174327685410  0.7825900920729083  0.7936618671992051
  0.6111387377338886  0.4974574023802987  0.7591321351359497
  0.6112216890686355  0.2827364210439711  0.2927770864506485
  0.1112321435681949  0.7827388645496853  0.2929981476905539
  0.3887522666305117  0.4976173850465315  0.2585878973603428
  0.1112108019156040  0.9973045224545203  0.7606538591002305
  0.3886011046788198  0.2826339434098344  0.7930504236694844
  0.7696660129043735  0.1194943085550761  0.2737841793872846
  0.7694901176624924  0.6606585879217448  0.7793753015030660
  0.7303692763347271  0.6193193526310949  0.7728021205005149
  0.7305187750223396  0.1608459106370077  0.2799164864670232
  0.2304512392257152  0.6608850008651501  0.2787742610883228
  0.2696033818837122  0.6195601871031329  0.2722795311248944
  0.2302988946231466  0.1192851156363872  0.7739005097305593
  0.2694313418347178  0.1606474979663943  0.7800455888637572
  0.9793065293838694  0.8900246760283750  0.0271709055965701
  0.0204551586391020  0.8899600337860250  0.5271994492902436
  0.5203870707724363  0.3900443526942894  0.5263875324814649
  0.4793540914697232  0.3900687981212769  0.0261042034054597
  0.3270719681740459  0.1049392436534049  0.3094549524803938
  0.7578553029076502  0.5313439664210051  0.2967590011490344
  0.7582403015794839  0.2488069590438400  0.7561330967598821
  0.7420778274263000  0.0316368412686998  0.7978940811582831
  0.7418798173339738  0.7487176505387438  0.2556624787498194
  0.6727371714415895  0.6752232198564059  0.2434595969110376
  0.1728552176957834  0.6049691879691821  0.8080428528074606
  0.1725417441514097  0.1750606245301469  0.2446514493829000
  0.8270748200859401  0.6047674144103539  0.3087444995804987
  0.2417357108984604  0.2485750694051490  0.2561329719938854
  0.2421630612805572  0.5315784397029830  0.7961834245209047
  0.2579296170385703  0.7488919209883278  0.7549414481100030
  0.3271697458254721  0.6754630468300178  0.7428425166560544
  0.6728150604418701  0.1050953037186133  0.8090999595347768
  0.8274351291027813  0.1752801338942902  0.7446289806072883
  0.2577912026340314  0.0314930601031236  0.2982284700172144
  0.5459268151739849  0.4978225495576325  0.0323383491790636
  0.4538758987231120  0.2822527996372344  0.5200913573209291
  0.3588484674208559  0.4638864492960906  0.9832555345601293
  0.1411983260248135  0.8164313882002858  0.5683753831530112
  0.0459523561333981  0.9976735524487452  0.0336761775498786
  0.3586016627960404  0.3164227792344008  0.0679459602088954
  0.8586371103036825  0.9637602679291462  0.9851722666231595
  0.9539001580149105  0.7822391539274705  0.5207536505580634
  0.1411556960375435  0.9635496923524940  0.4854966483692493
  0.6410270970363285  0.4636703117562320  0.4839519730451585
  0.5459574166990819  0.2823132579099550  0.0198114183676950
  0.9538979837950876  0.9976152191521948  0.5339390263065766
  0.6411532371584698  0.3164872759313226  0.5679269802947147
  0.4538899289472766  0.4978771798533472  0.5321715853103797
  0.0458781977459566  0.7823694564311126  0.0202475468037022
  0.8586181236494141  0.8163625688123801  0.0686882242582456
  0.9344170274076191  0.9316155085342359  0.1786241064694210
  0.9651385639224586  0.9430709654971139  0.3474323169130855
  0.9344702459079812  0.8483631620198935  0.8755947334004901
  0.5652833545528608  0.4316572380198593  0.6776474149029781
  0.5346001046585940  0.3369210112812198  0.2060504879129610
  0.0345747106211576  0.8368906842336017  0.2068410375261038
  0.5346016799311499  0.4431954695819158  0.8462826024303638
  0.5652873162401022  0.3484582390897231  0.3747288137301510
  0.4651812964318793  0.4432185067041559  0.3462066471254275
  0.0653105186501008  0.8483963562459209  0.3754747614395271
  0.0346142649200161  0.9431083794930686  0.8472853239037619
  0.4651259724298669  0.3369124559559751  0.7060728606525473
  0.9651919507735371  0.8368312740813550  0.7070040040431209
  0.0653251498402412  0.9315799575865213  0.6786609001966752
  0.4344284085263865  0.3484519503416124  0.8746905415678654
  0.4345188032501781  0.4317368140297759  0.1773615441234071
  0.8478566736840776  0.0377406366272268  0.2625815227392536
  0.8477490147303612  0.7423189139479405  0.7913821218394332
  0.6520353105827681  0.5377130464162931  0.7611199849384107
  0.6521453513727877  0.2424872034058936  0.2909156869602256
  0.1521210199460796  0.7424963441845165  0.2906902381684233
  0.3478987396614670  0.5379104678976034  0.2605700895295939
  0.1520642333869588  0.0375915495082637  0.7626748009630404
  0.3477407467045950  0.2423343714465318  0.7911813014592184
  0.8192802093560374  0.9891797101709301  0.6248947883376061
  0.8738462755542926  0.0854530618534568  0.8958058799352955
  0.8735017182234159  0.6945462554968174  0.1584309008509095
  0.6262255096296414  0.5854770873391359  0.3941151864123356
  0.6262334328989780  0.1947772480269023  0.6577946176563785
  0.1806966069818401  0.7912072717606549  0.9285710692513689
  0.6805955674465736  0.4890240183482319  0.1233104175526094
  0.6808745717750782  0.2911230791626664  0.9289162875163584
  0.3193643174044425  0.4892637998821741  0.6228630235062269
  0.1262908625495882  0.6946774125396189  0.6575000185187676
  0.1260959057023641  0.0852908653561428  0.3958125807422377
  0.3735775301865729  0.1946722847085098  0.1582532404180270
  0.8191499348851821  0.7909874345738572  0.4291444202765362
  0.1806326420019460  0.9890046236469843  0.1250179582382529
  0.3189662650683758  0.2909555840864186  0.4291228400690557
  0.3736901045659167  0.5856422507471635  0.8935947436825629
 
  0.00000000E+00  0.00000000E+00  0.00000000E+00
  0.00000000E+00  0.00000000E+00  0.00000000E+00
  0.00000000E+00  0.00000000E+00  0.00000000E+00
  0.00000000E+00  0.00000000E+00  0.00000000E+00
  0.00000000E+00  0.00000000E+00  0.00000000E+00
  0.00000000E+00  0.00000000E+00  0.00000000E+00
  0.00000000E+00  0.00000000E+00  0.00000000E+00
  0.00000000E+00  0.00000000E+00  0.00000000E+00
  0.00000000E+00  0.00000000E+00  0.00000000E+00
  0.00000000E+00  0.00000000E+00  0.00000000E+00
  0.00000000E+00  0.00000000E+00  0.00000000E+00
  0.00000000E+00  0.00000000E+00  0.00000000E+00
  0.00000000E+00  0.00000000E+00  0.00000000E+00
  0.00000000E+00  0.00000000E+00  0.00000000E+00
  0.00000000E+00  0.00000000E+00  0.00000000E+00
  0.00000000E+00  0.00000000E+00  0.00000000E+00
  0.00000000E+00  0.00000000E+00  0.00000000E+00
  0.00000000E+00  0.00000000E+00  0.00000000E+00
  0.00000000E+00  0.00000000E+00  0.00000000E+00
  0.00000000E+00  0.00000000E+00  0.00000000E+00
  0.00000000E+00  0.00000000E+00  0.00000000E+00
  0.00000000E+00  0.00000000E+00  0.00000000E+00
  0.00000000E+00  0.00000000E+00  0.00000000E+00
  0.00000000E+00  0.00000000E+00  0.00000000E+00
  0.00000000E+00  0.00000000E+00  0.00000000E+00
  0.00000000E+00  0.00000000E+00  0.00000000E+00
  0.00000000E+00  0.00000000E+00  0.00000000E+00
  0.00000000E+00  0.00000000E+00  0.00000000E+00
  0.00000000E+00  0.00000000E+00  0.00000000E+00
  0.00000000E+00  0.00000000E+00  0.00000000E+00
  0.00000000E+00  0.00000000E+00  0.00000000E+00
  0.00000000E+00  0.00000000E+00  0.00000000E+00
  0.00000000E+00  0.00000000E+00  0.00000000E+00
  0.00000000E+00  0.00000000E+00  0.00000000E+00
  0.00000000E+00  0.00000000E+00  0.00000000E+00
  0.00000000E+00  0.00000000E+00  0.00000000E+00
  0.00000000E+00  0.00000000E+00  0.00000000E+00
  0.00000000E+00  0.00000000E+00  0.00000000E+00
  0.00000000E+00  0.00000000E+00  0.00000000E+00
  0.00000000E+00  0.00000000E+00  0.00000000E+00
  0.00000000E+00  0.00000000E+00  0.00000000E+00
  0.00000000E+00  0.00000000E+00  0.00000000E+00
  0.00000000E+00  0.00000000E+00  0.00000000E+00
  0.00000000E+00  0.00000000E+00  0.00000000E+00
  0.00000000E+00  0.00000000E+00  0.00000000E+00
  0.00000000E+00  0.00000000E+00  0.00000000E+00
  0.00000000E+00  0.00000000E+00  0.00000000E+00
  0.00000000E+00  0.00000000E+00  0.00000000E+00
  0.00000000E+00  0.00000000E+00  0.00000000E+00
  0.00000000E+00  0.00000000E+00  0.00000000E+00
  0.00000000E+00  0.00000000E+00  0.00000000E+00
  0.00000000E+00  0.00000000E+00  0.00000000E+00
  0.00000000E+00  0.00000000E+00  0.00000000E+00
  0.00000000E+00  0.00000000E+00  0.00000000E+00
  0.00000000E+00  0.00000000E+00  0.00000000E+00
  0.00000000E+00  0.00000000E+00  0.00000000E+00
  0.00000000E+00  0.00000000E+00  0.00000000E+00
  0.00000000E+00  0.00000000E+00  0.00000000E+00
  0.00000000E+00  0.00000000E+00  0.00000000E+00
  0.00000000E+00  0.00000000E+00  0.00000000E+00
  0.00000000E+00  0.00000000E+00  0.00000000E+00
  0.00000000E+00  0.00000000E+00  0.00000000E+00
  0.00000000E+00  0.00000000E+00  0.00000000E+00
  0.00000000E+00  0.00000000E+00  0.00000000E+00
  0.00000000E+00  0.00000000E+00  0.00000000E+00
  0.00000000E+00  0.00000000E+00  0.00000000E+00
  0.00000000E+00  0.00000000E+00  0.00000000E+00
  0.00000000E+00  0.00000000E+00  0.00000000E+00
  0.00000000E+00  0.00000000E+00  0.00000000E+00
  0.00000000E+00  0.00000000E+00  0.00000000E+00
  0.00000000E+00  0.00000000E+00  0.00000000E+00
  0.00000000E+00  0.00000000E+00  0.00000000E+00
  0.00000000E+00  0.00000000E+00  0.00000000E+00
  0.00000000E+00  0.00000000E+00  0.00000000E+00
  0.00000000E+00  0.00000000E+00  0.00000000E+00
  0.00000000E+00  0.00000000E+00  0.00000000E+00
  0.00000000E+00  0.00000000E+00  0.00000000E+00
  0.00000000E+00  0.00000000E+00  0.00000000E+00
  0.00000000E+00  0.00000000E+00  0.00000000E+00
  0.00000000E+00  0.00000000E+00  0.00000000E+00
  0.00000000E+00  0.00000000E+00  0.00000000E+00
  0.00000000E+00  0.00000000E+00  0.00000000E+00
  0.00000000E+00  0.00000000E+00  0.00000000E+00
  0.00000000E+00  0.00000000E+00  0.00000000E+00
  0.00000000E+00  0.00000000E+00  0.00000000E+00
  0.00000000E+00  0.00000000E+00  0.00000000E+00
  0.00000000E+00  0.00000000E+00  0.00000000E+00
  0.00000000E+00  0.00000000E+00  0.00000000E+00
  0.00000000E+00  0.00000000E+00  0.00000000E+00
  0.00000000E+00  0.00000000E+00  0.00000000E+00
  0.00000000E+00  0.00000000E+00  0.00000000E+00
  0.00000000E+00  0.00000000E+00  0.00000000E+00
  0.00000000E+00  0.00000000E+00  0.00000000E+00
  0.00000000E+00  0.00000000E+00  0.00000000E+00
  0.00000000E+00  0.00000000E+00  0.00000000E+00
  0.00000000E+00  0.00000000E+00  0.00000000E+00
  0.00000000E+00  0.00000000E+00  0.00000000E+00
  0.00000000E+00  0.00000000E+00  0.00000000E+00
  0.00000000E+00  0.00000000E+00  0.00000000E+00
  0.00000000E+00  0.00000000E+00  0.00000000E+00
  0.00000000E+00  0.00000000E+00  0.00000000E+00
  0.00000000E+00  0.00000000E+00  0.00000000E+00
  0.00000000E+00  0.00000000E+00  0.00000000E+00
  0.00000000E+00  0.00000000E+00  0.00000000E+00
  0.00000000E+00  0.00000000E+00  0.00000000E+00
  0.00000000E+00  0.00000000E+00  0.00000000E+00
  0.00000000E+00  0.00000000E+00  0.00000000E+00
  0.00000000E+00  0.00000000E+00  0.00000000E+00
  0.00000000E+00  0.00000000E+00  0.00000000E+00
  0.00000000E+00  0.00000000E+00  0.00000000E+00
  0.00000000E+00  0.00000000E+00  0.00000000E+00
  0.00000000E+00  0.00000000E+00  0.00000000E+00
  0.00000000E+00  0.00000000E+00  0.00000000E+00
  0.00000000E+00  0.00000000E+00  0.00000000E+00
  0.00000000E+00  0.00000000E+00  0.00000000E+00
  0.00000000E+00  0.00000000E+00  0.00000000E+00
  0.00000000E+00  0.00000000E+00  0.00000000E+00
  0.00000000E+00  0.00000000E+00  0.00000000E+00
  0.00000000E+00  0.00000000E+00  0.00000000E+00
  0.00000000E+00  0.00000000E+00  0.00000000E+00
  0.00000000E+00  0.00000000E+00  0.00000000E+00
  0.00000000E+00  0.00000000E+00  0.00000000E+00
  0.00000000E+00  0.00000000E+00  0.00000000E+00
  0.00000000E+00  0.00000000E+00  0.00000000E+00
  0.00000000E+00  0.00000000E+00  0.00000000E+00
  0.00000000E+00  0.00000000E+00  0.00000000E+00
  0.00000000E+00  0.00000000E+00  0.00000000E+00
  0.00000000E+00  0.00000000E+00  0.00000000E+00
  0.00000000E+00  0.00000000E+00  0.00000000E+00
  0.00000000E+00  0.00000000E+00  0.00000000E+00
  0.00000000E+00  0.00000000E+00  0.00000000E+00
  0.00000000E+00  0.00000000E+00  0.00000000E+00
  0.00000000E+00  0.00000000E+00  0.00000000E+00
  0.00000000E+00  0.00000000E+00  0.00000000E+00
  0.00000000E+00  0.00000000E+00  0.00000000E+00
  0.00000000E+00  0.00000000E+00  0.00000000E+00
  0.00000000E+00  0.00000000E+00  0.00000000E+00
  0.00000000E+00  0.00000000E+00  0.00000000E+00
  0.00000000E+00  0.00000000E+00  0.00000000E+00
  0.00000000E+00  0.00000000E+00  0.00000000E+00
  0.00000000E+00  0.00000000E+00  0.00000000E+00
  0.00000000E+00  0.00000000E+00  0.00000000E+00
  0.00000000E+00  0.00000000E+00  0.00000000E+00
  0.00000000E+00  0.00000000E+00  0.00000000E+00
  0.00000000E+00  0.00000000E+00  0.00000000E+00
  0.00000000E+00  0.00000000E+00  0.00000000E+00
  0.00000000E+00  0.00000000E+00  0.00000000E+00
  0.00000000E+00  0.00000000E+00  0.00000000E+00
  0.00000000E+00  0.00000000E+00  0.00000000E+00
  0.00000000E+00  0.00000000E+00  0.00000000E+00
  0.00000000E+00  0.00000000E+00  0.00000000E+00
  0.00000000E+00  0.00000000E+00  0.00000000E+00
  0.00000000E+00  0.00000000E+00  0.00000000E+00
  0.00000000E+00  0.00000000E+00  0.00000000E+00
  0.00000000E+00  0.00000000E+00  0.00000000E+00
  0.00000000E+00  0.00000000E+00  0.00000000E+00
