FeH_middle                              
   1.00000000000000     
    10.3221213611767570    0.0033221243879047   -0.0061880844597701
     0.0072852474421527   32.9200894549513521    2.6196441930344347
     0.0012874563807119    0.4958382993497409    5.6553346181906736
   C    Fe   H    N    O 
    80     4    32    24    16
Direct
  0.7892290012245340  0.9563307482936025  0.0789756657146299
  0.8963264804201430  0.9627192158350226  0.4132147653809355
  0.7862312440571060  0.8066860285213622  0.9242927104255827
  0.7103232803511332  0.4564025437736063  0.5781503465080675
  0.6076962396233512  0.3000602169950071  0.0898427538038717
  0.1033950229386633  0.7994374136786675  0.0917509135527865
  0.6037138553117032  0.4627091345241965  0.9129196603446914
  0.7139963517051697  0.3066680912703674  0.4245616651604678
  0.3927918422471777  0.4621167285172376  0.4143488540929425
  0.2104483303639668  0.8057698904591035  0.4261405908176741
  0.1065044485868043  0.9621817335099863  0.9148520765166452
  0.3966326126142903  0.2994960930820483  0.5911722454888846
  0.8929622029663236  0.7999687808589968  0.5903295097294716
  0.2133674000186687  0.9555185445575916  0.5809159594438285
  0.2900289490974970  0.3058207324439053  0.9259624408665346
  0.2864738184273250  0.4554717583463699  0.0797068381185468
  0.7085818363468945  0.0366529438901182  0.4095729473829408
  0.8457650767122189  0.0540800516131696  0.0403269168663840
  0.8398036633219448  0.7089151628004231  0.9630371279003569
  0.6540378181953415  0.5541436110054008  0.5397802263972267
  0.6604611911228773  0.2089758438240779  0.4631088249469641
  0.2911512406413337  0.7255056866536194  0.0950538392886031
  0.7910837931791050  0.5366273957800374  0.9093910154763947
  0.7970504764163380  0.2264776730748466  0.0931108254209434
  0.2035104928312848  0.5356374952115530  0.4114448383737823
  0.1541056930014051  0.7080387287170993  0.4643414438350462
  0.1595994334268056  0.0532836384190460  0.5422474852058414
  0.3460907135240845  0.2081011383939426  0.9644080125899066
  0.7033128765128325  0.7265208914034034  0.5927569735854235
  0.2956433866285622  0.0356900539384384  0.9129559225606201
  0.2091028693453367  0.2256065262474181  0.5947859721544617
  0.3397845951310003  0.5531956546256680  0.0412268689150252
  0.6956065163229610  0.0809639084907090  0.4170368093428110
  0.8314674551757548  0.0980346324138637  0.0568873999717638
  0.8251371116101041  0.6649824688384314  0.9465214203020338
  0.6684826266499968  0.5980972765676640  0.5563319777727642
  0.6750556148598577  0.1650303721152255  0.4467637237019417
  0.3043325499537275  0.6811956820401406  0.0876667952414536
  0.8042636353516954  0.5809328204388962  0.9167744394244011
  0.8107196375712107  0.1821414411820541  0.0863860780720813
  0.1896107845965034  0.5799692135680203  0.4181609574180882
  0.1685012449732710  0.6640837803557673  0.4477117711144487
  0.1743107201332137  0.0972209953801126  0.5586643591866149
  0.3314090436725934  0.1641398686673838  0.9482066107493381
  0.6895218811755370  0.6821953986926061  0.5859208744682078
  0.3097709451154458  0.0800195679220579  0.9193540218054821
  0.1955436975131661  0.1812906876223508  0.5879830175416458
  0.3251543204425857  0.5971360139264590  0.0577643409926196
  0.6237557879962594  0.0937788313978061  0.5989390570848627
  0.8932416771493621  0.1274945577133408  0.8907129873990058
  0.8866997218243071  0.6354828072031324  0.1130250989909314
  0.6068885484755810  0.6276083135998860  0.3899391107963837
  0.6135637327962442  0.1355683999306905  0.6133721215466537
  0.3762657493587085  0.6684045820287423  0.9058418228281582
  0.8763311811123913  0.5936992131817220  0.0985891673171650
  0.8828829185711484  0.1692994607102918  0.9049838239206451
  0.1173316574636516  0.5927833537437834  0.5995105960717666
  0.1067932997614776  0.6345835784112239  0.6137965765836739
  0.1128011262596900  0.1267236325296963  0.3921196119514008
  0.3929390244678146  0.1346165193386639  0.1146544549364990
  0.6173866221813000  0.6694041661787224  0.4042705506057018
  0.3820992743952161  0.0928110993516142  0.1007716445166835
  0.1233655438885322  0.1685137347433141  0.4064014503096658
  0.3866098152950173  0.6266188447305865  0.8912701192365660
  0.8164898999753945  0.9838117535817119  0.2352983458282907
  0.8122481717019809  0.7791683615287610  0.7675488846946337
  0.6831998883871080  0.4838485918958142  0.7347812140868299
  0.6881660935211400  0.2791962878502829  0.2674742134969392
  0.1832268415447516  0.7783194061502527  0.2695853028086503
  0.3122776430380014  0.4829599537814460  0.2367137186022248
  0.1871489434316089  0.9830210919636997  0.7376820733035387
  0.3170896682770916  0.2783828457931321  0.7692687517871661
  0.7583384678159248  0.1102470380795353  0.2442368821925740
  0.7520229272774657  0.6528445468425090  0.7589338433882418
  0.7416121342463455  0.6102566112920513  0.7438853836087844
  0.7480867475717332  0.1528419513215908  0.2592775622793297
  0.2416873728266253  0.6518895880180793  0.2604077513824592
  0.2521071040383944  0.6092973386904319  0.2453141960232443
  0.2474527160564364  0.1093711006471096  0.7461846139189561
  0.2580815172725863  0.1519672164641577  0.7609870201954863
  0.9552748186613869  0.8811238344320600  0.0025335176090380
  0.0444890673648217  0.8810092896613142  0.5028152266446497
  0.5446802410941487  0.3811372696090700  0.5020663627676853
  0.4558505743455825  0.3810303856570911  0.0022867663156205
  0.4482500373792888  0.1447658080326661  0.2573128884453624
  0.9230213012554387  0.5704028570156936  0.2297781130329355
  0.9295754175069249  0.1925504452035298  0.7736607649621234
  0.5770950709553446  0.0705092801162479  0.7301505446742027
  0.5708645395286140  0.6926960780859162  0.2727698287181539
  0.5518344599512162  0.6174535300368689  0.2469765011410487
  0.0515458952309871  0.6447509407675724  0.7564655168870260
  0.0576709271553710  0.1165575453388641  0.2492829993384476
  0.9417744857948804  0.6456512986769027  0.2559088646444536
  0.0767433102151784  0.1918031869256680  0.2750848836831636
  0.0707140624161369  0.5695173030057958  0.7308159945469654
  0.4228710123644461  0.6916901029122329  0.7746342706285816
  0.4415774327673532  0.6164477632498944  0.7482876190978587
  0.5586474101666141  0.1457725769506553  0.7563135125025582
  0.9483601566778290  0.1172935580521681  0.7479976773373807
  0.4285567163348034  0.0695249487702299  0.2323814582055732
  0.5603477309158720  0.4735974987092177  0.0647841533244531
  0.4399645315896308  0.2886177183948675  0.4392446369146370
  0.2299474968950079  0.4598957321069008  0.9158635910374073
  0.2671032052534841  0.8011736789335231  0.5898347198274365
  0.0633467255329165  0.9732471576991770  0.0663143263600148
  0.2336190592577836  0.3012346879388303  0.0898504825100161
  0.7325325231527486  0.9608876210661776  0.9153395152293626
  0.9360558222742839  0.7888811259575306  0.4388620710348405
  0.2700889368129253  0.9599401881423333  0.4174084232193920
  0.7667583816154462  0.4609868460571391  0.4142782224471517
  0.5648698556545995  0.2890585139879605  0.9378408820530240
  0.9399242232701681  0.9736777362127214  0.5646575077037355
  0.7705556803219125  0.3022229963513894  0.5883562636789392
  0.4356881102379901  0.4731616298049204  0.5661480192441601
  0.0598127928565830  0.7885220872410841  0.9401329905872871
  0.7294798742117194  0.8022886583415740  0.0877705501537349
  0.8506542482451565  0.9204912425842195  0.1604067713858655
  0.9165732667510369  0.9246993982801825  0.3654650534174948
  0.8491129069429348  0.8422642361352146  0.8436812876113322
  0.6491756900537879  0.4205461126685961  0.6596371931125304
  0.5857823475844697  0.3379382438489742  0.1384255286646692
  0.0831453055098805  0.8374407242764832  0.1397507572075511
  0.5835239633845077  0.4247077526527931  0.8649729916082194
  0.6512079543078215  0.3422808692659132  0.3437835540501624
  0.4147483326768153  0.4242417187218166  0.3658535759124248
  0.1490247135898883  0.8416118769368310  0.3449027717262538
  0.0848474073316439  0.9242881055336980  0.8663510567889503
  0.4169287294494239  0.3374881088176167  0.6392321122726585
  0.9147978396030112  0.8378569639279476  0.6387777302776101
  0.1505945266067741  0.9199131322750347  0.6614535109916417
  0.3513078308774880  0.3416583328123082  0.8445783368655029
  0.3493143201814632  0.4198716217895040  0.1605548392826819
  0.7835486470584101  0.0259654153964490  0.2203223695267837
  0.7781885257807062  0.7371125783757577  0.7824935777946038
  0.7161165516397503  0.5259884206441683  0.7199670110855010
  0.7221535636376828  0.2371232481785839  0.2825994837211283
  0.2162172757261658  0.7361739171551065  0.2843620230668691
  0.2782018483835529  0.5250212711216946  0.2216601154600397
  0.2211271294903341  0.0250806363156855  0.7228538210977931
  0.2840716090474729  0.2362514356685352  0.7841464536248779
  0.6587550733838583  0.0100130051655540  0.5592407521372422
  0.9090367576931158  0.0419810724986434  0.8818423795119799
  0.9030822305678896  0.7209142952861001  0.1218555078856767
  0.5907277405836169  0.5420936692644744  0.3811651052853264
  0.5971879946166325  0.2210245930249641  0.6217410533066285
  0.3408182128365809  0.7521553515291828  0.9452496556805414
  0.8407713481930870  0.5099530418769049  0.0592482346741861
  0.8460715811614108  0.2531561390196515  0.9426385298431370
  0.1547675148556777  0.5089506415495677  0.5621962619548029
  0.0908251969481597  0.7201029694050405  0.6229089146817088
  0.0963502470247803  0.0412901120260258  0.3833914822900866
  0.4095237774493086  0.2201531672086290  0.1228570681078622
  0.6544166269245082  0.7532406512829297  0.4422040755360896
  0.3441189719055160  0.0089981902259737  0.0641964040407359
  0.1597121960257297  0.2522639745771187  0.4444907284673434
  0.4030501292569539  0.5411772467175666  0.8824859757688230
 
  0.00000000E+00  0.00000000E+00  0.00000000E+00
  0.00000000E+00  0.00000000E+00  0.00000000E+00
  0.00000000E+00  0.00000000E+00  0.00000000E+00
  0.00000000E+00  0.00000000E+00  0.00000000E+00
  0.00000000E+00  0.00000000E+00  0.00000000E+00
  0.00000000E+00  0.00000000E+00  0.00000000E+00
  0.00000000E+00  0.00000000E+00  0.00000000E+00
  0.00000000E+00  0.00000000E+00  0.00000000E+00
  0.00000000E+00  0.00000000E+00  0.00000000E+00
  0.00000000E+00  0.00000000E+00  0.00000000E+00
  0.00000000E+00  0.00000000E+00  0.00000000E+00
  0.00000000E+00  0.00000000E+00  0.00000000E+00
  0.00000000E+00  0.00000000E+00  0.00000000E+00
  0.00000000E+00  0.00000000E+00  0.00000000E+00
  0.00000000E+00  0.00000000E+00  0.00000000E+00
  0.00000000E+00  0.00000000E+00  0.00000000E+00
  0.00000000E+00  0.00000000E+00  0.00000000E+00
  0.00000000E+00  0.00000000E+00  0.00000000E+00
  0.00000000E+00  0.00000000E+00  0.00000000E+00
  0.00000000E+00  0.00000000E+00  0.00000000E+00
  0.00000000E+00  0.00000000E+00  0.00000000E+00
  0.00000000E+00  0.00000000E+00  0.00000000E+00
  0.00000000E+00  0.00000000E+00  0.00000000E+00
  0.00000000E+00  0.00000000E+00  0.00000000E+00
  0.00000000E+00  0.00000000E+00  0.00000000E+00
  0.00000000E+00  0.00000000E+00  0.00000000E+00
  0.00000000E+00  0.00000000E+00  0.00000000E+00
  0.00000000E+00  0.00000000E+00  0.00000000E+00
  0.00000000E+00  0.00000000E+00  0.00000000E+00
  0.00000000E+00  0.00000000E+00  0.00000000E+00
  0.00000000E+00  0.00000000E+00  0.00000000E+00
  0.00000000E+00  0.00000000E+00  0.00000000E+00
  0.00000000E+00  0.00000000E+00  0.00000000E+00
  0.00000000E+00  0.00000000E+00  0.00000000E+00
  0.00000000E+00  0.00000000E+00  0.00000000E+00
  0.00000000E+00  0.00000000E+00  0.00000000E+00
  0.00000000E+00  0.00000000E+00  0.00000000E+00
  0.00000000E+00  0.00000000E+00  0.00000000E+00
  0.00000000E+00  0.00000000E+00  0.00000000E+00
  0.00000000E+00  0.00000000E+00  0.00000000E+00
  0.00000000E+00  0.00000000E+00  0.00000000E+00
  0.00000000E+00  0.00000000E+00  0.00000000E+00
  0.00000000E+00  0.00000000E+00  0.00000000E+00
  0.00000000E+00  0.00000000E+00  0.00000000E+00
  0.00000000E+00  0.00000000E+00  0.00000000E+00
  0.00000000E+00  0.00000000E+00  0.00000000E+00
  0.00000000E+00  0.00000000E+00  0.00000000E+00
  0.00000000E+00  0.00000000E+00  0.00000000E+00
  0.00000000E+00  0.00000000E+00  0.00000000E+00
  0.00000000E+00  0.00000000E+00  0.00000000E+00
  0.00000000E+00  0.00000000E+00  0.00000000E+00
  0.00000000E+00  0.00000000E+00  0.00000000E+00
  0.00000000E+00  0.00000000E+00  0.00000000E+00
  0.00000000E+00  0.00000000E+00  0.00000000E+00
  0.00000000E+00  0.00000000E+00  0.00000000E+00
  0.00000000E+00  0.00000000E+00  0.00000000E+00
  0.00000000E+00  0.00000000E+00  0.00000000E+00
  0.00000000E+00  0.00000000E+00  0.00000000E+00
  0.00000000E+00  0.00000000E+00  0.00000000E+00
  0.00000000E+00  0.00000000E+00  0.00000000E+00
  0.00000000E+00  0.00000000E+00  0.00000000E+00
  0.00000000E+00  0.00000000E+00  0.00000000E+00
  0.00000000E+00  0.00000000E+00  0.00000000E+00
  0.00000000E+00  0.00000000E+00  0.00000000E+00
  0.00000000E+00  0.00000000E+00  0.00000000E+00
  0.00000000E+00  0.00000000E+00  0.00000000E+00
  0.00000000E+00  0.00000000E+00  0.00000000E+00
  0.00000000E+00  0.00000000E+00  0.00000000E+00
  0.00000000E+00  0.00000000E+00  0.00000000E+00
  0.00000000E+00  0.00000000E+00  0.00000000E+00
  0.00000000E+00  0.00000000E+00  0.00000000E+00
  0.00000000E+00  0.00000000E+00  0.00000000E+00
  0.00000000E+00  0.00000000E+00  0.00000000E+00
  0.00000000E+00  0.00000000E+00  0.00000000E+00
  0.00000000E+00  0.00000000E+00  0.00000000E+00
  0.00000000E+00  0.00000000E+00  0.00000000E+00
  0.00000000E+00  0.00000000E+00  0.00000000E+00
  0.00000000E+00  0.00000000E+00  0.00000000E+00
  0.00000000E+00  0.00000000E+00  0.00000000E+00
  0.00000000E+00  0.00000000E+00  0.00000000E+00
  0.00000000E+00  0.00000000E+00  0.00000000E+00
  0.00000000E+00  0.00000000E+00  0.00000000E+00
  0.00000000E+00  0.00000000E+00  0.00000000E+00
  0.00000000E+00  0.00000000E+00  0.00000000E+00
  0.00000000E+00  0.00000000E+00  0.00000000E+00
  0.00000000E+00  0.00000000E+00  0.00000000E+00
  0.00000000E+00  0.00000000E+00  0.00000000E+00
  0.00000000E+00  0.00000000E+00  0.00000000E+00
  0.00000000E+00  0.00000000E+00  0.00000000E+00
  0.00000000E+00  0.00000000E+00  0.00000000E+00
  0.00000000E+00  0.00000000E+00  0.00000000E+00
  0.00000000E+00  0.00000000E+00  0.00000000E+00
  0.00000000E+00  0.00000000E+00  0.00000000E+00
  0.00000000E+00  0.00000000E+00  0.00000000E+00
  0.00000000E+00  0.00000000E+00  0.00000000E+00
  0.00000000E+00  0.00000000E+00  0.00000000E+00
  0.00000000E+00  0.00000000E+00  0.00000000E+00
  0.00000000E+00  0.00000000E+00  0.00000000E+00
  0.00000000E+00  0.00000000E+00  0.00000000E+00
  0.00000000E+00  0.00000000E+00  0.00000000E+00
  0.00000000E+00  0.00000000E+00  0.00000000E+00
  0.00000000E+00  0.00000000E+00  0.00000000E+00
  0.00000000E+00  0.00000000E+00  0.00000000E+00
  0.00000000E+00  0.00000000E+00  0.00000000E+00
  0.00000000E+00  0.00000000E+00  0.00000000E+00
  0.00000000E+00  0.00000000E+00  0.00000000E+00
  0.00000000E+00  0.00000000E+00  0.00000000E+00
  0.00000000E+00  0.00000000E+00  0.00000000E+00
  0.00000000E+00  0.00000000E+00  0.00000000E+00
  0.00000000E+00  0.00000000E+00  0.00000000E+00
  0.00000000E+00  0.00000000E+00  0.00000000E+00
  0.00000000E+00  0.00000000E+00  0.00000000E+00
  0.00000000E+00  0.00000000E+00  0.00000000E+00
  0.00000000E+00  0.00000000E+00  0.00000000E+00
  0.00000000E+00  0.00000000E+00  0.00000000E+00
  0.00000000E+00  0.00000000E+00  0.00000000E+00
  0.00000000E+00  0.00000000E+00  0.00000000E+00
  0.00000000E+00  0.00000000E+00  0.00000000E+00
  0.00000000E+00  0.00000000E+00  0.00000000E+00
  0.00000000E+00  0.00000000E+00  0.00000000E+00
  0.00000000E+00  0.00000000E+00  0.00000000E+00
  0.00000000E+00  0.00000000E+00  0.00000000E+00
  0.00000000E+00  0.00000000E+00  0.00000000E+00
  0.00000000E+00  0.00000000E+00  0.00000000E+00
  0.00000000E+00  0.00000000E+00  0.00000000E+00
  0.00000000E+00  0.00000000E+00  0.00000000E+00
  0.00000000E+00  0.00000000E+00  0.00000000E+00
  0.00000000E+00  0.00000000E+00  0.00000000E+00
  0.00000000E+00  0.00000000E+00  0.00000000E+00
  0.00000000E+00  0.00000000E+00  0.00000000E+00
  0.00000000E+00  0.00000000E+00  0.00000000E+00
  0.00000000E+00  0.00000000E+00  0.00000000E+00
  0.00000000E+00  0.00000000E+00  0.00000000E+00
  0.00000000E+00  0.00000000E+00  0.00000000E+00
  0.00000000E+00  0.00000000E+00  0.00000000E+00
  0.00000000E+00  0.00000000E+00  0.00000000E+00
  0.00000000E+00  0.00000000E+00  0.00000000E+00
  0.00000000E+00  0.00000000E+00  0.00000000E+00
  0.00000000E+00  0.00000000E+00  0.00000000E+00
  0.00000000E+00  0.00000000E+00  0.00000000E+00
  0.00000000E+00  0.00000000E+00  0.00000000E+00
  0.00000000E+00  0.00000000E+00  0.00000000E+00
  0.00000000E+00  0.00000000E+00  0.00000000E+00
  0.00000000E+00  0.00000000E+00  0.00000000E+00
  0.00000000E+00  0.00000000E+00  0.00000000E+00
  0.00000000E+00  0.00000000E+00  0.00000000E+00
  0.00000000E+00  0.00000000E+00  0.00000000E+00
  0.00000000E+00  0.00000000E+00  0.00000000E+00
  0.00000000E+00  0.00000000E+00  0.00000000E+00
  0.00000000E+00  0.00000000E+00  0.00000000E+00
  0.00000000E+00  0.00000000E+00  0.00000000E+00
  0.00000000E+00  0.00000000E+00  0.00000000E+00
  0.00000000E+00  0.00000000E+00  0.00000000E+00
  0.00000000E+00  0.00000000E+00  0.00000000E+00
  0.00000000E+00  0.00000000E+00  0.00000000E+00
  0.00000000E+00  0.00000000E+00  0.00000000E+00
