FeH_8                                   
   1.00000000000000     
     8.5513767362209627    0.0034908100126722   -0.0109793696738236
     0.0128179598875509   32.8567622819112657    2.9727705132010906
    -0.0064029517101653    0.6897352051586927    5.8774042947985761
   C    Fe   H    N    O 
    80     4    32    24    16
Direct
  0.7545064001915662  0.9509998742696339  0.9949808966353260
  0.8906072962775937  0.9542214078195386  0.3135364686612121
  0.7413312036586888  0.7996044870966088  0.8419530293251043
  0.7439858069268368  0.4509953683349295  0.4941476321652303
  0.6233177963622154  0.2950587531682203  0.0237959665503311
  0.1091722927233718  0.7935527396219229  0.0297527517803005
  0.6078508028501375  0.4542892258075284  0.8117446045748054
  0.7577727892637682  0.2996332008594820  0.3417439225279608
  0.3748405687997689  0.4528733802024050  0.3143062339794724
  0.2454143765266963  0.7967341122907641  0.3482524371206352
  0.1237724016955468  0.9527442369059216  0.8180602577504885
  0.3897661686690128  0.2935982066930762  0.5269558281716655
  0.8760972130492277  0.7950263893997729  0.5251532320902328
  0.2587423078562594  0.9480532201611993  0.5015772005916688
  0.2538415280908453  0.2968788131471882  0.8447699559865214
  0.2401825407638825  0.4483896102960969  0.9963557407051340
  0.6961637560091134  0.0300478410583978  0.3276757554305902
  0.8465487541413879  0.0481629838090640  0.9573502359033057
  0.8225695229684504  0.7020137135179851  0.8808862068248899
  0.6524054908597066  0.5482695920312608  0.4559512769304206
  0.6772200608251993  0.2020951106166748  0.3806511731204765
  0.3036566489601427  0.7178167861254110  0.0146981178030927
  0.8020565703724074  0.5299546088569969  0.8279027241771075
  0.8272126768425565  0.2204683637116247  0.0101995515052948
  0.1712448041532468  0.5274221679814985  0.3285855567662779
  0.1529493577125365  0.6995647257639561  0.3847229974056106
  0.1778377256096135  0.0456196995565250  0.4610157582286831
  0.3464052753495821  0.1997078850143552  0.8838541120539816
  0.6729342574396000  0.7205487473946945  0.5091340394997417
  0.3273331206537762  0.0272931233265652  0.8330550424834371
  0.1963169752627110  0.2177550871503371  0.5120795244483887
  0.3218417565591452  0.5459307142406686  0.9586650963460031
  0.6980806051760737  0.0740651422224445  0.3407276435841453
  0.8371085976782808  0.0921130443656821  0.9711344287990826
  0.8118980017368926  0.6581144955487801  0.8668308242533769
  0.6622184560742994  0.5922188451806534  0.4698480919643018
  0.6878139229991902  0.1581872668710247  0.3668891350817844
  0.3013986687945192  0.6738497582958729  0.0007124050235703
  0.8006671740212283  0.5739884007531941  0.8408102671536568
  0.8268042863202680  0.1763729822173872  0.9974578542035246
  0.1720819061013330  0.5714649426840808  0.3423129981507742
  0.1622284692558651  0.6556528377673061  0.3701331524308529
  0.1882608397946655  0.0895447667057283  0.4745447046994897
  0.3371237544084309  0.1557251151123040  0.8704793006582463
  0.6733152713086739  0.6764677471461269  0.4961608949138494
  0.3268055733834387  0.0714083351006707  0.8453063005283568
  0.1984907558660822  0.1737151689448169  0.4995271582854670
  0.3112720468054349  0.5897979168838106  0.9730738411711570
  0.6288637103579973  0.0862832577258459  0.5276231007302954
  0.9026202213113237  0.1222803449389716  0.7985436366771808
  0.8762702362182822  0.6279119290940187  0.0407233373561127
  0.5972069055260931  0.6224651385277866  0.2965775916204834
  0.6230260661230815  0.1280628610082886  0.5402014440814327
  0.3705706185221729  0.6617189840346001  0.8134922851172064
  0.8697625778631703  0.5861235556433613  0.0283666645470788
  0.8965790034003049  0.1640865903354651  0.8110008621405171
  0.1024859198264849  0.5836590144758418  0.5291874956260259
  0.0966745665186011  0.6254290393401831  0.5423749570509173
  0.1235821263685324  0.1196371145269026  0.3004084802899172
  0.4022754571913651  0.1255732538843759  0.0440957407268314
  0.6037517051319341  0.6642756128146061  0.3089411574088956
  0.3961056099636195  0.0837304662378955  0.0323084428933740
  0.1295012165221365  0.1614456156733297  0.3123042625391506
  0.3761997151050878  0.6199816564286778  0.8002046542449008
  0.7954104716487933  0.9772762601464393  0.1430436140912263
  0.7774135865314165  0.7730117675472243  0.6935055307116045
  0.7030018015396209  0.4772956068318450  0.6419120576582387
  0.7220970443679704  0.2730380871200921  0.1930077691878083
  0.2044514452437483  0.7704887408017456  0.2000724343343379
  0.2762207850565517  0.4749529405655863  0.1451211885072752
  0.2226780442146463  0.9746954861158699  0.6497458888184227
  0.2948868401114026  0.2705754558174291  0.6970959351523334
  0.7647634448176319  0.1038911793961006  0.1620635568026358
  0.7396460130733331  0.6464881601102448  0.6750991090963083
  0.7345681170205154  0.6039104680112857  0.6613792268022252
  0.7600668744228543  0.1464804287840664  0.1757658282906718
  0.2345032303719208  0.6439650327129627  0.1788903251624845
  0.2389608975756445  0.6014115405289004  0.1644108964121571
  0.2603617813390926  0.1012939680963711  0.6660056383060535
  0.2650154196322134  0.1439055182433222  0.6791301056998762
  0.9392466459286197  0.8742184057500495  0.9203020146854328
  0.0605888656903772  0.8735262764026928  0.4231032459516868
  0.5593185803242804  0.3742754220972913  0.4183688547563094
  0.4382420824409508  0.3736303852009257  0.9200134584661441
  0.4538875662442763  0.1352031603707289  0.1921946403716319
  0.9159291032584775  0.5621648830722421  0.1660165886106881
  0.9432003232186190  0.1880034376762154  0.6738956762931778
  0.5819862018832183  0.0623843709789256  0.6644992032390604
  0.5577037529450379  0.6882467797434444  0.1711498335438719
  0.5452406859876717  0.6129246809019193  0.1484743305852234
  0.0448776226934839  0.6349620737533144  0.6903330625241892
  0.0721913552047866  0.1099511869517400  0.1524174226936026
  0.9276819408340273  0.6374781851438556  0.1890294916115138
  0.0829589742157353  0.1853084101198732  0.1745005327314431
  0.0557130057407917  0.5597033300603869  0.6659305200170209
  0.4176458034851578  0.6856504035925255  0.6769847538245983
  0.4276231245347759  0.6104093409374514  0.6521678375839173
  0.5716024371506947  0.1377045978802869  0.6880350195786136
  0.9546285376931678  0.1126774910665134  0.6509101520809608
  0.4421148118817655  0.0598381481722470  0.1705087448870870
  0.5513441433200796  0.4641008307585679  0.9551576225921252
  0.4462523807663317  0.2837807165363344  0.3835560139626750
  0.1696480703327410  0.4539489712722258  0.8400662948190103
  0.3157207132801076  0.7905271761078225  0.5047015676918818
  0.0690541166814285  0.9631627417013533  0.9609885114833219
  0.1837257475350995  0.2907078412302297  0.0008749973422297
  0.6842606588799782  0.9571896347993629  0.8384849053879506
  0.9307629435154254  0.7846635063779885  0.3820115963697148
  0.3294253452376168  0.9535063370111416  0.3459466488442331
  0.8142649066332766  0.4571391648262875  0.3382265985491628
  0.5688433925075529  0.2847095973889395  0.8801770422380812
  0.9471145880232612  0.9639966593086626  0.4573871158226694
  0.8282514352257806  0.2941243071158794  0.4980719710679296
  0.4294440007951792  0.4631907478874311  0.4579055396382969
  0.0526609122398796  0.7837827875161167  0.8859159356269473
  0.6707038835398862  0.7941013418068010  0.9976129451721576
  0.8242599917091695  0.9138364768369698  0.0738617267448802
  0.9083130872796588  0.9162662181066423  0.2691858220808570
  0.8170562476556640  0.8359329168159846  0.7651450986793336
  0.6742978062328433  0.4138655270491967  0.5725354313016879
  0.5988118856415952  0.3326972694919093  0.0693205916245532
  0.0914939789903002  0.8314962419975842  0.0742277359782193
  0.5902673375597161  0.4163364795515179  0.7673047742824437
  0.6817758961227227  0.3359658571297217  0.2642887892051675
  0.3989399579312902  0.4152189876421062  0.2687897235437404
  0.1755933609475946  0.8339013636324353  0.2695656243090241
  0.0995881054003362  0.9150967902871514  0.7725408233210089
  0.4071786145721390  0.3315739774234459  0.5711441878038741
  0.9002137050080634  0.8326580545887197  0.5709229052163778
  0.1828275096060139  0.9117569039094207  0.5784840954203574
  0.3232675546060051  0.3340349575621104  0.7660492077374244
  0.3158643410990365  0.4120053910022605  0.0738311228172748
  0.7670054067504850  0.0199542432574660  0.1313606950916153
  0.7447047108347036  0.7305042785069134  0.7057681879752167
  0.7314999945863079  0.5199488311580325  0.6307127256747549
  0.7551204294140561  0.2305119257761206  0.2059461586442595
  0.2328544670094246  0.7278193696033455  0.2113187209362337
  0.2434251224375501  0.5174744628893109  0.1326367625983593
  0.2554613462927122  0.0172159299793293  0.6368015737102297
  0.2668649900431603  0.2278897253946539  0.7089156452661953
  0.6349696157830920  0.0031881980801813  0.4765772856374468
  0.9183065763272467  0.0359145249541655  0.8039212183165247
  0.8946931393073214  0.7139231693071864  0.0354782986073587
  0.5808064659943639  0.5361278910669043  0.3016683515154881
  0.6049704292165927  0.2140883313671225  0.5345081810723968
  0.3651123424888496  0.7447338667668433  0.8663947074775180
  0.8627189620889979  0.5030117825951379  0.9775356572327212
  0.8871813535191748  0.2474708209254715  0.8609067598348616
  0.1108108786269852  0.5003707594226654  0.4771568070991563
  0.0811003909793087  0.7117547760320804  0.5382768649396965
  0.1060834172324192  0.0336359497064578  0.3063344322271178
  0.4179258914571093  0.2119762016821483  0.0378017135877542
  0.6130001058427723  0.7476138516065518  0.3595427314809712
  0.3874037342044261  0.0002989931197490  0.9828970447852043
  0.1350606618609405  0.2445964887531815  0.3625069374418786
  0.3943982499504912  0.5339757425309699  0.8049774929540376
 
  0.00000000E+00  0.00000000E+00  0.00000000E+00
  0.00000000E+00  0.00000000E+00  0.00000000E+00
  0.00000000E+00  0.00000000E+00  0.00000000E+00
  0.00000000E+00  0.00000000E+00  0.00000000E+00
  0.00000000E+00  0.00000000E+00  0.00000000E+00
  0.00000000E+00  0.00000000E+00  0.00000000E+00
  0.00000000E+00  0.00000000E+00  0.00000000E+00
  0.00000000E+00  0.00000000E+00  0.00000000E+00
  0.00000000E+00  0.00000000E+00  0.00000000E+00
  0.00000000E+00  0.00000000E+00  0.00000000E+00
  0.00000000E+00  0.00000000E+00  0.00000000E+00
  0.00000000E+00  0.00000000E+00  0.00000000E+00
  0.00000000E+00  0.00000000E+00  0.00000000E+00
  0.00000000E+00  0.00000000E+00  0.00000000E+00
  0.00000000E+00  0.00000000E+00  0.00000000E+00
  0.00000000E+00  0.00000000E+00  0.00000000E+00
  0.00000000E+00  0.00000000E+00  0.00000000E+00
  0.00000000E+00  0.00000000E+00  0.00000000E+00
  0.00000000E+00  0.00000000E+00  0.00000000E+00
  0.00000000E+00  0.00000000E+00  0.00000000E+00
  0.00000000E+00  0.00000000E+00  0.00000000E+00
  0.00000000E+00  0.00000000E+00  0.00000000E+00
  0.00000000E+00  0.00000000E+00  0.00000000E+00
  0.00000000E+00  0.00000000E+00  0.00000000E+00
  0.00000000E+00  0.00000000E+00  0.00000000E+00
  0.00000000E+00  0.00000000E+00  0.00000000E+00
  0.00000000E+00  0.00000000E+00  0.00000000E+00
  0.00000000E+00  0.00000000E+00  0.00000000E+00
  0.00000000E+00  0.00000000E+00  0.00000000E+00
  0.00000000E+00  0.00000000E+00  0.00000000E+00
  0.00000000E+00  0.00000000E+00  0.00000000E+00
  0.00000000E+00  0.00000000E+00  0.00000000E+00
  0.00000000E+00  0.00000000E+00  0.00000000E+00
  0.00000000E+00  0.00000000E+00  0.00000000E+00
  0.00000000E+00  0.00000000E+00  0.00000000E+00
  0.00000000E+00  0.00000000E+00  0.00000000E+00
  0.00000000E+00  0.00000000E+00  0.00000000E+00
  0.00000000E+00  0.00000000E+00  0.00000000E+00
  0.00000000E+00  0.00000000E+00  0.00000000E+00
  0.00000000E+00  0.00000000E+00  0.00000000E+00
  0.00000000E+00  0.00000000E+00  0.00000000E+00
  0.00000000E+00  0.00000000E+00  0.00000000E+00
  0.00000000E+00  0.00000000E+00  0.00000000E+00
  0.00000000E+00  0.00000000E+00  0.00000000E+00
  0.00000000E+00  0.00000000E+00  0.00000000E+00
  0.00000000E+00  0.00000000E+00  0.00000000E+00
  0.00000000E+00  0.00000000E+00  0.00000000E+00
  0.00000000E+00  0.00000000E+00  0.00000000E+00
  0.00000000E+00  0.00000000E+00  0.00000000E+00
  0.00000000E+00  0.00000000E+00  0.00000000E+00
  0.00000000E+00  0.00000000E+00  0.00000000E+00
  0.00000000E+00  0.00000000E+00  0.00000000E+00
  0.00000000E+00  0.00000000E+00  0.00000000E+00
  0.00000000E+00  0.00000000E+00  0.00000000E+00
  0.00000000E+00  0.00000000E+00  0.00000000E+00
  0.00000000E+00  0.00000000E+00  0.00000000E+00
  0.00000000E+00  0.00000000E+00  0.00000000E+00
  0.00000000E+00  0.00000000E+00  0.00000000E+00
  0.00000000E+00  0.00000000E+00  0.00000000E+00
  0.00000000E+00  0.00000000E+00  0.00000000E+00
  0.00000000E+00  0.00000000E+00  0.00000000E+00
  0.00000000E+00  0.00000000E+00  0.00000000E+00
  0.00000000E+00  0.00000000E+00  0.00000000E+00
  0.00000000E+00  0.00000000E+00  0.00000000E+00
  0.00000000E+00  0.00000000E+00  0.00000000E+00
  0.00000000E+00  0.00000000E+00  0.00000000E+00
  0.00000000E+00  0.00000000E+00  0.00000000E+00
  0.00000000E+00  0.00000000E+00  0.00000000E+00
  0.00000000E+00  0.00000000E+00  0.00000000E+00
  0.00000000E+00  0.00000000E+00  0.00000000E+00
  0.00000000E+00  0.00000000E+00  0.00000000E+00
  0.00000000E+00  0.00000000E+00  0.00000000E+00
  0.00000000E+00  0.00000000E+00  0.00000000E+00
  0.00000000E+00  0.00000000E+00  0.00000000E+00
  0.00000000E+00  0.00000000E+00  0.00000000E+00
  0.00000000E+00  0.00000000E+00  0.00000000E+00
  0.00000000E+00  0.00000000E+00  0.00000000E+00
  0.00000000E+00  0.00000000E+00  0.00000000E+00
  0.00000000E+00  0.00000000E+00  0.00000000E+00
  0.00000000E+00  0.00000000E+00  0.00000000E+00
  0.00000000E+00  0.00000000E+00  0.00000000E+00
  0.00000000E+00  0.00000000E+00  0.00000000E+00
  0.00000000E+00  0.00000000E+00  0.00000000E+00
  0.00000000E+00  0.00000000E+00  0.00000000E+00
  0.00000000E+00  0.00000000E+00  0.00000000E+00
  0.00000000E+00  0.00000000E+00  0.00000000E+00
  0.00000000E+00  0.00000000E+00  0.00000000E+00
  0.00000000E+00  0.00000000E+00  0.00000000E+00
  0.00000000E+00  0.00000000E+00  0.00000000E+00
  0.00000000E+00  0.00000000E+00  0.00000000E+00
  0.00000000E+00  0.00000000E+00  0.00000000E+00
  0.00000000E+00  0.00000000E+00  0.00000000E+00
  0.00000000E+00  0.00000000E+00  0.00000000E+00
  0.00000000E+00  0.00000000E+00  0.00000000E+00
  0.00000000E+00  0.00000000E+00  0.00000000E+00
  0.00000000E+00  0.00000000E+00  0.00000000E+00
  0.00000000E+00  0.00000000E+00  0.00000000E+00
  0.00000000E+00  0.00000000E+00  0.00000000E+00
  0.00000000E+00  0.00000000E+00  0.00000000E+00
  0.00000000E+00  0.00000000E+00  0.00000000E+00
  0.00000000E+00  0.00000000E+00  0.00000000E+00
  0.00000000E+00  0.00000000E+00  0.00000000E+00
  0.00000000E+00  0.00000000E+00  0.00000000E+00
  0.00000000E+00  0.00000000E+00  0.00000000E+00
  0.00000000E+00  0.00000000E+00  0.00000000E+00
  0.00000000E+00  0.00000000E+00  0.00000000E+00
  0.00000000E+00  0.00000000E+00  0.00000000E+00
  0.00000000E+00  0.00000000E+00  0.00000000E+00
  0.00000000E+00  0.00000000E+00  0.00000000E+00
  0.00000000E+00  0.00000000E+00  0.00000000E+00
  0.00000000E+00  0.00000000E+00  0.00000000E+00
  0.00000000E+00  0.00000000E+00  0.00000000E+00
  0.00000000E+00  0.00000000E+00  0.00000000E+00
  0.00000000E+00  0.00000000E+00  0.00000000E+00
  0.00000000E+00  0.00000000E+00  0.00000000E+00
  0.00000000E+00  0.00000000E+00  0.00000000E+00
  0.00000000E+00  0.00000000E+00  0.00000000E+00
  0.00000000E+00  0.00000000E+00  0.00000000E+00
  0.00000000E+00  0.00000000E+00  0.00000000E+00
  0.00000000E+00  0.00000000E+00  0.00000000E+00
  0.00000000E+00  0.00000000E+00  0.00000000E+00
  0.00000000E+00  0.00000000E+00  0.00000000E+00
  0.00000000E+00  0.00000000E+00  0.00000000E+00
  0.00000000E+00  0.00000000E+00  0.00000000E+00
  0.00000000E+00  0.00000000E+00  0.00000000E+00
  0.00000000E+00  0.00000000E+00  0.00000000E+00
  0.00000000E+00  0.00000000E+00  0.00000000E+00
  0.00000000E+00  0.00000000E+00  0.00000000E+00
  0.00000000E+00  0.00000000E+00  0.00000000E+00
  0.00000000E+00  0.00000000E+00  0.00000000E+00
  0.00000000E+00  0.00000000E+00  0.00000000E+00
  0.00000000E+00  0.00000000E+00  0.00000000E+00
  0.00000000E+00  0.00000000E+00  0.00000000E+00
  0.00000000E+00  0.00000000E+00  0.00000000E+00
  0.00000000E+00  0.00000000E+00  0.00000000E+00
  0.00000000E+00  0.00000000E+00  0.00000000E+00
  0.00000000E+00  0.00000000E+00  0.00000000E+00
  0.00000000E+00  0.00000000E+00  0.00000000E+00
  0.00000000E+00  0.00000000E+00  0.00000000E+00
  0.00000000E+00  0.00000000E+00  0.00000000E+00
  0.00000000E+00  0.00000000E+00  0.00000000E+00
  0.00000000E+00  0.00000000E+00  0.00000000E+00
  0.00000000E+00  0.00000000E+00  0.00000000E+00
  0.00000000E+00  0.00000000E+00  0.00000000E+00
  0.00000000E+00  0.00000000E+00  0.00000000E+00
  0.00000000E+00  0.00000000E+00  0.00000000E+00
  0.00000000E+00  0.00000000E+00  0.00000000E+00
  0.00000000E+00  0.00000000E+00  0.00000000E+00
  0.00000000E+00  0.00000000E+00  0.00000000E+00
  0.00000000E+00  0.00000000E+00  0.00000000E+00
  0.00000000E+00  0.00000000E+00  0.00000000E+00
  0.00000000E+00  0.00000000E+00  0.00000000E+00
  0.00000000E+00  0.00000000E+00  0.00000000E+00
  0.00000000E+00  0.00000000E+00  0.00000000E+00
  0.00000000E+00  0.00000000E+00  0.00000000E+00
  0.00000000E+00  0.00000000E+00  0.00000000E+00
