 Co_F                                   
   1.00000000000000     
     8.0257762082915711    0.0006483650523162   -0.0006713015614043
    -0.0003356555747295   32.6528743334375662   -2.9474841444794091
    -0.0000971917066155   -0.6667379263333632    6.5478692223253434
   C    Co   H    N    O 
    80     4    32    24    16
Direct
  0.8874517896903882  0.9514080050153950  0.0793313144946168
  0.7388143791106074  0.9453660000406714  0.3584560544738977
  0.9031893709096650  0.7936214351512092  0.8212665799926455
  0.6140227504059368  0.4512070094880940  0.5754101233067033
  0.7468470130611209  0.2980187062423880  0.0375222407349085
  0.2636910640804686  0.8009734149121996  0.0445901644942950
  0.7613615672012344  0.4452101856516322  0.8556198691671568
  0.5968779946948359  0.2935093598457641  0.3177238207655222
  0.2517328131748684  0.4480145530947937  0.3590672854696422
  0.1158961420378546  0.7949814694413462  0.3244522300181742
  0.2492067436867487  0.9480483613152089  0.8619490798081202
  0.2369352539871485  0.3007155674153523  0.5409130402327165
  0.7536089343324264  0.7981205564283727  0.5406729279711655
  0.0987320600185768  0.9526514210731847  0.5821852681158077
  0.3849932727798944  0.2947605136545164  0.8206509415938328
  0.4007321132258213  0.4524570274730948  0.0780241590674322
  0.6721372818052203  0.0259724849949237  0.0548478039191949
  0.8128191521767008  0.0441736755805167  0.3992994290441914
  0.8405269887723819  0.6998251285782260  0.5009409212120559
  0.6881275005219578  0.5439132964552655  0.8976227489689705
  0.6599497258142932  0.1995944702442856  0.9988609387877787
  0.3302656990784669  0.7200937082421248  0.3471219402059020
  0.8287037189892317  0.5260224422964583  0.5530571915183344
  0.8012963472421859  0.2176214070069662  0.3431538432180332
  0.1974532519232355  0.5287049116959182  0.0547097286244309
  0.1896183656973776  0.7023332030017144  0.0024629568195706
  0.1615589690674000  0.0464574842450034  0.9010140530085167
  0.3114920009048916  0.2019719097439037  0.5003012545400267
  0.6988924543244437  0.7175520808464242  0.8451693130820530
  0.3034713215971649  0.0285647418452157  0.5570929215693710
  0.1705905131150516  0.2200426235081494  0.8446207965324675
  0.3388081382428680  0.5462674122647684  0.3991832035974454
  0.6741961259441354  0.0704951535180953  0.0415291751473035
  0.8031768776742751  0.0884874778277123  0.3847849169181430
  0.8318873528483550  0.6554384539463456  0.5145368359002163
  0.6977118571437515  0.5882826922038404  0.8840596270615961
  0.6686152010586923  0.1552507710807660  0.0134858981220347
  0.3276101107493403  0.6755101066785087  0.3593182994763851
  0.8266141942500269  0.5705992207462174  0.5407206228355932
  0.7976066772436496  0.1731695911904367  0.3568865585835397
  0.2020260051313798  0.5732042066502387  0.0421034660642050
  0.1983420490209582  0.6579618992438938  0.0160568295438708
  0.1692404470461284  0.0907942508230235  0.8862151938681180
  0.3025508981473806  0.1576471898814802  0.5148679359237107
  0.7028262708254971  0.6730547515981087  0.8580125870388784
  0.2987216791123686  0.0729911270242170  0.5430796859531100
  0.1731837162067720  0.1755196038734681  0.8579014924206803
  0.3312454180647322  0.5906675627355327  0.3855123036342505
  0.6120743251193375  0.0829199802108036  0.8666602145216373
  0.8638321497052104  0.1185843673136375  0.5451392781722078
  0.8930531088632918  0.6254518558122868  0.3539861257149113
  0.6369534168921618  0.6182451886872897  0.0449453116551979
  0.6075337652114143  0.1251304203228543  0.8534605697021149
  0.3894360203646201  0.6628376616805696  0.5336924281363977
  0.8886354291441023  0.5831960458262273  0.3662518418327352
  0.8593481863688268  0.1607717297312306  0.5319712246088528
  0.1405613658156923  0.5858384896102677  0.8675114274451232
  0.1370335712754667  0.6280742257499980  0.8552355499390742
  0.1075466412031290  0.1208478384380882  0.0460898265923433
  0.3638484880332626  0.1276167327679758  0.3546709399734738
  0.6412058852722851  0.6604785735035819  0.0326800638979208
  0.3602436563680271  0.0854328563934388  0.3680337186822200
  0.1112562414277960  0.1630493356662441  0.0327462943664969
  0.3929917475372235  0.6205808791361633  0.5460079356036260
  0.7782698990286150  0.9727795124524832  0.2268108913794578
  0.7982137226219734  0.7711093867264438  0.6722138272817304
  0.7226555507008641  0.4725999705252093  0.7235788853921292
  0.7021391055973041  0.2710082255557964  0.1690076072087763
  0.2247434020125851  0.7735896639592710  0.1765619009362496
  0.2960066200416165  0.4750030168993078  0.2273177766055241
  0.2042719098565797  0.9751016299822339  0.7307371233070512
  0.2761077582675853  0.2733449095748597  0.6729019863256624
  0.7369444215621854  0.1004847178471522  0.2064714391499365
  0.7657167416978936  0.6432420884227881  0.6924459569091468
  0.7638202258892264  0.6004608398996183  0.7061705890473533
  0.7348531907143965  0.1432245033532453  0.1918111079119384
  0.2642852127985549  0.6457257930467080  0.1938966188674485
  0.2654278833864012  0.6029472723368556  0.2076208306232274
  0.2352187793879068  0.1028710730046996  0.7079120103222252
  0.2364802890072326  0.1455973105406585  0.6930964808261493
  0.0634911562402465  0.8734544741010026  0.9524047834215850
  0.9385913447868006  0.8728197725794331  0.4508879279327331
  0.4368034483059162  0.3733622342724061  0.4490122588132408
  0.5613377051275279  0.3726419442632007  0.9470866894615071
  0.4137449244127822  0.1375725594324706  0.2188118066311944
  0.9317388494188208  0.5593733368511380  0.2392480033597764
  0.9026870037863830  0.1846790002831895  0.6584016991232886
  0.5689334841442104  0.0589978452425157  0.7401252260400710
  0.5977920264285430  0.6842731978662044  0.1595733265613788
  0.5869666467382686  0.6081873631849604  0.1805002783699550
  0.0872736221870696  0.6381925533030781  0.7197215068316538
  0.0576699304742760  0.1109158405678343  0.1820761798013564
  0.9431367819364027  0.6354825207595596  0.2183523494315480
  0.0677260093100998  0.1869306266360979  0.1591984407265983
  0.0967265022741302  0.5620885322774427  0.7407023803590462
  0.4329754496268734  0.6866019706211119  0.6606903222538563
  0.4428550961179809  0.6104989069070967  0.6816306414892424
  0.5573673120115643  0.1350179903563742  0.7174977371945062
  0.9138748858330956  0.1086801512847231  0.6810756643787741
  0.4041807904016395  0.0615688165243284  0.2418032333882181
  0.8380030027378780  0.4498122162610869  0.9940487859888378
  0.1599891804622189  0.2961070706749069  0.4027492736783884
  0.4610114914001500  0.4626734080023454  0.9494093755654873
  0.0575237526118926  0.7841156323173948  0.4524901199087736
  0.3263803585434459  0.9533196097832075  0.9999315203737282
  0.4435005815601940  0.2839167722036322  0.9487208468540231
  0.9462479973571760  0.9623027000425566  0.9516132340350154
  0.6769992626681542  0.7928144864572033  0.4022209281027145
  0.0378288520503105  0.9629626182286586  0.4542494721926857
  0.5558305199111473  0.4620462879499811  0.4471458239462578
  0.8237677698983674  0.2927101242796581  0.8993544714769683
  0.6617246810520356  0.9499553051291798  0.4964793834569647
  0.5362086652265532  0.2832373067872993  0.4459211540329306
  0.1753160480688365  0.4533470980146106  0.4976531657625003
  0.3404897196920729  0.7963569162225497  0.9062860404876076
  0.9637966303474457  0.7833852620729260  0.9496266471097314
  0.9146687191438261  0.9135124320808714  0.1208901489774235
  0.8228457227440344  0.9093247829050952  0.2923820331549294
  0.9233151014614975  0.8318326624467929  0.7806661949773357
  0.5863642875525699  0.4133336951867008  0.6170383813827129
  0.6694402649929430  0.3349440022053756  0.1048139092660136
  0.1796604680575982  0.8370113234851502  0.1108350536890299
  0.6774325292915648  0.4091715048890450  0.7891625187957558
  0.5766840678080811  0.3317056110621479  0.2769947253676577
  0.3288375426575598  0.4110688241535101  0.2914227739161461
  0.0883056540959473  0.8328508517066453  0.2827415554083714
  0.1716625313232854  0.9111476553174214  0.7946356305419400
  0.3208782984151313  0.3367720905777247  0.6070452990299344
  0.8307278873123636  0.8350619720241923  0.6082784516686957
  0.0786168141557226  0.9144451612355979  0.6227742455500902
  0.4123367839343359  0.3326299345019521  0.7788743053887828
  0.4210331968365892  0.4142621018759556  0.1187576608291678
  0.7417991170511797  0.0155076389488045  0.2354829275848260
  0.7670957404602063  0.7281927913039823  0.6642072001710986
  0.7589613439739580  0.5153627833926251  0.7331595976532910
  0.7334029731371530  0.2281000569978389  0.1616039143329004
  0.2607635043313650  0.7308131367586554  0.1669921661162448
  0.2652841025578354  0.5179569255651373  0.2356487557777740
  0.2353712970930886  0.0180182497067065  0.7383323047370993
  0.2400527604886378  0.2305860028949027  0.6640572103598146
  0.6135259193503089  0.9992279344893333  0.9171206317263625
  0.8800096200407239  0.0325500800536602  0.5467290343507045
  0.9081095546629356  0.7117681680005958  0.3546630812610303
  0.6210743110469394  0.5321698093980274  0.0447868338304716
  0.5923699794825197  0.2113755670805091  0.8521185254587280
  0.3891695714796910  0.7466806334174620  0.4853686904540382
  0.8873572873444289  0.4993846089609164  0.4148597741221067
  0.8606532505510387  0.2442921749448175  0.4807375755980843
  0.1375031820221864  0.5022263642771776  0.9166762620788305
  0.1229430135517404  0.7141499681181074  0.8552379432013240
  0.0943678452199350  0.0346105996183610  0.0477985904282079
  0.3784848913770702  0.2136377507837111  0.3528965050609330
  0.6391703271032299  0.7441186860801636  0.9829592889543122
  0.3638016582603427  0.0019614949414901  0.4199586844085275
  0.1116729625957618  0.2467269485618999  0.9824071326086781
  0.4056936516660983  0.5342750494134378  0.5457703198514778
 
  0.00000000E+00  0.00000000E+00  0.00000000E+00
  0.00000000E+00  0.00000000E+00  0.00000000E+00
  0.00000000E+00  0.00000000E+00  0.00000000E+00
  0.00000000E+00  0.00000000E+00  0.00000000E+00
  0.00000000E+00  0.00000000E+00  0.00000000E+00
  0.00000000E+00  0.00000000E+00  0.00000000E+00
  0.00000000E+00  0.00000000E+00  0.00000000E+00
  0.00000000E+00  0.00000000E+00  0.00000000E+00
  0.00000000E+00  0.00000000E+00  0.00000000E+00
  0.00000000E+00  0.00000000E+00  0.00000000E+00
  0.00000000E+00  0.00000000E+00  0.00000000E+00
  0.00000000E+00  0.00000000E+00  0.00000000E+00
  0.00000000E+00  0.00000000E+00  0.00000000E+00
  0.00000000E+00  0.00000000E+00  0.00000000E+00
  0.00000000E+00  0.00000000E+00  0.00000000E+00
  0.00000000E+00  0.00000000E+00  0.00000000E+00
  0.00000000E+00  0.00000000E+00  0.00000000E+00
  0.00000000E+00  0.00000000E+00  0.00000000E+00
  0.00000000E+00  0.00000000E+00  0.00000000E+00
  0.00000000E+00  0.00000000E+00  0.00000000E+00
  0.00000000E+00  0.00000000E+00  0.00000000E+00
  0.00000000E+00  0.00000000E+00  0.00000000E+00
  0.00000000E+00  0.00000000E+00  0.00000000E+00
  0.00000000E+00  0.00000000E+00  0.00000000E+00
  0.00000000E+00  0.00000000E+00  0.00000000E+00
  0.00000000E+00  0.00000000E+00  0.00000000E+00
  0.00000000E+00  0.00000000E+00  0.00000000E+00
  0.00000000E+00  0.00000000E+00  0.00000000E+00
  0.00000000E+00  0.00000000E+00  0.00000000E+00
  0.00000000E+00  0.00000000E+00  0.00000000E+00
  0.00000000E+00  0.00000000E+00  0.00000000E+00
  0.00000000E+00  0.00000000E+00  0.00000000E+00
  0.00000000E+00  0.00000000E+00  0.00000000E+00
  0.00000000E+00  0.00000000E+00  0.00000000E+00
  0.00000000E+00  0.00000000E+00  0.00000000E+00
  0.00000000E+00  0.00000000E+00  0.00000000E+00
  0.00000000E+00  0.00000000E+00  0.00000000E+00
  0.00000000E+00  0.00000000E+00  0.00000000E+00
  0.00000000E+00  0.00000000E+00  0.00000000E+00
  0.00000000E+00  0.00000000E+00  0.00000000E+00
  0.00000000E+00  0.00000000E+00  0.00000000E+00
  0.00000000E+00  0.00000000E+00  0.00000000E+00
  0.00000000E+00  0.00000000E+00  0.00000000E+00
  0.00000000E+00  0.00000000E+00  0.00000000E+00
  0.00000000E+00  0.00000000E+00  0.00000000E+00
  0.00000000E+00  0.00000000E+00  0.00000000E+00
  0.00000000E+00  0.00000000E+00  0.00000000E+00
  0.00000000E+00  0.00000000E+00  0.00000000E+00
  0.00000000E+00  0.00000000E+00  0.00000000E+00
  0.00000000E+00  0.00000000E+00  0.00000000E+00
  0.00000000E+00  0.00000000E+00  0.00000000E+00
  0.00000000E+00  0.00000000E+00  0.00000000E+00
  0.00000000E+00  0.00000000E+00  0.00000000E+00
  0.00000000E+00  0.00000000E+00  0.00000000E+00
  0.00000000E+00  0.00000000E+00  0.00000000E+00
  0.00000000E+00  0.00000000E+00  0.00000000E+00
  0.00000000E+00  0.00000000E+00  0.00000000E+00
  0.00000000E+00  0.00000000E+00  0.00000000E+00
  0.00000000E+00  0.00000000E+00  0.00000000E+00
  0.00000000E+00  0.00000000E+00  0.00000000E+00
  0.00000000E+00  0.00000000E+00  0.00000000E+00
  0.00000000E+00  0.00000000E+00  0.00000000E+00
  0.00000000E+00  0.00000000E+00  0.00000000E+00
  0.00000000E+00  0.00000000E+00  0.00000000E+00
  0.00000000E+00  0.00000000E+00  0.00000000E+00
  0.00000000E+00  0.00000000E+00  0.00000000E+00
  0.00000000E+00  0.00000000E+00  0.00000000E+00
  0.00000000E+00  0.00000000E+00  0.00000000E+00
  0.00000000E+00  0.00000000E+00  0.00000000E+00
  0.00000000E+00  0.00000000E+00  0.00000000E+00
  0.00000000E+00  0.00000000E+00  0.00000000E+00
  0.00000000E+00  0.00000000E+00  0.00000000E+00
  0.00000000E+00  0.00000000E+00  0.00000000E+00
  0.00000000E+00  0.00000000E+00  0.00000000E+00
  0.00000000E+00  0.00000000E+00  0.00000000E+00
  0.00000000E+00  0.00000000E+00  0.00000000E+00
  0.00000000E+00  0.00000000E+00  0.00000000E+00
  0.00000000E+00  0.00000000E+00  0.00000000E+00
  0.00000000E+00  0.00000000E+00  0.00000000E+00
  0.00000000E+00  0.00000000E+00  0.00000000E+00
  0.00000000E+00  0.00000000E+00  0.00000000E+00
  0.00000000E+00  0.00000000E+00  0.00000000E+00
  0.00000000E+00  0.00000000E+00  0.00000000E+00
  0.00000000E+00  0.00000000E+00  0.00000000E+00
  0.00000000E+00  0.00000000E+00  0.00000000E+00
  0.00000000E+00  0.00000000E+00  0.00000000E+00
  0.00000000E+00  0.00000000E+00  0.00000000E+00
  0.00000000E+00  0.00000000E+00  0.00000000E+00
  0.00000000E+00  0.00000000E+00  0.00000000E+00
  0.00000000E+00  0.00000000E+00  0.00000000E+00
  0.00000000E+00  0.00000000E+00  0.00000000E+00
  0.00000000E+00  0.00000000E+00  0.00000000E+00
  0.00000000E+00  0.00000000E+00  0.00000000E+00
  0.00000000E+00  0.00000000E+00  0.00000000E+00
  0.00000000E+00  0.00000000E+00  0.00000000E+00
  0.00000000E+00  0.00000000E+00  0.00000000E+00
  0.00000000E+00  0.00000000E+00  0.00000000E+00
  0.00000000E+00  0.00000000E+00  0.00000000E+00
  0.00000000E+00  0.00000000E+00  0.00000000E+00
  0.00000000E+00  0.00000000E+00  0.00000000E+00
  0.00000000E+00  0.00000000E+00  0.00000000E+00
  0.00000000E+00  0.00000000E+00  0.00000000E+00
  0.00000000E+00  0.00000000E+00  0.00000000E+00
  0.00000000E+00  0.00000000E+00  0.00000000E+00
  0.00000000E+00  0.00000000E+00  0.00000000E+00
  0.00000000E+00  0.00000000E+00  0.00000000E+00
  0.00000000E+00  0.00000000E+00  0.00000000E+00
  0.00000000E+00  0.00000000E+00  0.00000000E+00
  0.00000000E+00  0.00000000E+00  0.00000000E+00
  0.00000000E+00  0.00000000E+00  0.00000000E+00
  0.00000000E+00  0.00000000E+00  0.00000000E+00
  0.00000000E+00  0.00000000E+00  0.00000000E+00
  0.00000000E+00  0.00000000E+00  0.00000000E+00
  0.00000000E+00  0.00000000E+00  0.00000000E+00
  0.00000000E+00  0.00000000E+00  0.00000000E+00
  0.00000000E+00  0.00000000E+00  0.00000000E+00
  0.00000000E+00  0.00000000E+00  0.00000000E+00
  0.00000000E+00  0.00000000E+00  0.00000000E+00
  0.00000000E+00  0.00000000E+00  0.00000000E+00
  0.00000000E+00  0.00000000E+00  0.00000000E+00
  0.00000000E+00  0.00000000E+00  0.00000000E+00
  0.00000000E+00  0.00000000E+00  0.00000000E+00
  0.00000000E+00  0.00000000E+00  0.00000000E+00
  0.00000000E+00  0.00000000E+00  0.00000000E+00
  0.00000000E+00  0.00000000E+00  0.00000000E+00
  0.00000000E+00  0.00000000E+00  0.00000000E+00
  0.00000000E+00  0.00000000E+00  0.00000000E+00
  0.00000000E+00  0.00000000E+00  0.00000000E+00
  0.00000000E+00  0.00000000E+00  0.00000000E+00
  0.00000000E+00  0.00000000E+00  0.00000000E+00
  0.00000000E+00  0.00000000E+00  0.00000000E+00
  0.00000000E+00  0.00000000E+00  0.00000000E+00
  0.00000000E+00  0.00000000E+00  0.00000000E+00
  0.00000000E+00  0.00000000E+00  0.00000000E+00
  0.00000000E+00  0.00000000E+00  0.00000000E+00
  0.00000000E+00  0.00000000E+00  0.00000000E+00
  0.00000000E+00  0.00000000E+00  0.00000000E+00
  0.00000000E+00  0.00000000E+00  0.00000000E+00
  0.00000000E+00  0.00000000E+00  0.00000000E+00
  0.00000000E+00  0.00000000E+00  0.00000000E+00
  0.00000000E+00  0.00000000E+00  0.00000000E+00
  0.00000000E+00  0.00000000E+00  0.00000000E+00
  0.00000000E+00  0.00000000E+00  0.00000000E+00
  0.00000000E+00  0.00000000E+00  0.00000000E+00
  0.00000000E+00  0.00000000E+00  0.00000000E+00
  0.00000000E+00  0.00000000E+00  0.00000000E+00
  0.00000000E+00  0.00000000E+00  0.00000000E+00
  0.00000000E+00  0.00000000E+00  0.00000000E+00
  0.00000000E+00  0.00000000E+00  0.00000000E+00
  0.00000000E+00  0.00000000E+00  0.00000000E+00
  0.00000000E+00  0.00000000E+00  0.00000000E+00
  0.00000000E+00  0.00000000E+00  0.00000000E+00
  0.00000000E+00  0.00000000E+00  0.00000000E+00
  0.00000000E+00  0.00000000E+00  0.00000000E+00
  0.00000000E+00  0.00000000E+00  0.00000000E+00
  0.00000000E+00  0.00000000E+00  0.00000000E+00
