FeH_exp1                                
   1.00000000000000     
    23.9526365573664037    0.0025882084681234   -0.0123028220622892
    -0.0006725792963165   25.9198248675859730    3.8202328818849938
    -0.0041062618037883    0.6645412569470793    5.8043293224021877
   C    Fe   H    N    O 
    80     4    32    24    16
Direct
  0.8913659776082810  0.9679380428907933  0.0915160639118326
  0.9334019529811215  0.9851075544891046  0.4056231858777650
  0.8904648613899298  0.8141190815188821  0.9164773458381177
  0.6082987206386647  0.4682342040405345  0.5887935896979783
  0.5687089180681042  0.2964783097568429  0.1068072670655269
  0.0663376665409672  0.7955022039223749  0.1046264740256149
  0.5670701461486090  0.4853766648901612  0.9042964794232304
  0.6097655626931768  0.3141857384338422  0.4218395037134002
  0.4315049804166904  0.4841889720751809  0.4052042866153087
  0.1083479031304506  0.8123752044048587  0.4194255419743129
  0.0677195422062340  0.9845176210197195  0.9064770930937485
  0.4331490419008190  0.2956801831199272  0.6053008979352299
  0.9323474129685536  0.7965066416777944  0.6033779780376705
  0.1094376712783216  0.9670748448864899  0.5926739254794668
  0.3918906307185495  0.3126683590058263  0.9210271349568160
  0.3904311362890098  0.4665528055469892  0.0900703525410123
  0.8135649616577822  0.0328197766393359  0.4497810575784698
  0.8468265608701699  0.0842930149331025  0.0478670021028975
  0.8454849777195221  0.6979518271737390  0.9608073196683691
  0.6535097985282832  0.5843490590469287  0.5423928283008976
  0.6557006805125525  0.1981445903219452  0.4686918592747631
  0.1859961762017193  0.7474437081294454  0.0611567206635684
  0.6868533841550999  0.5331440220442829  0.9449544850967229
  0.6888451776264901  0.2494801704188490  0.0663543026550499
  0.3113215617204546  0.5311563234210936  0.4464222047600259
  0.1526810781661609  0.6959850356328374  0.4628815584119934
  0.1545145431776334  0.0831860096540069  0.5478912141858672
  0.3465691382146048  0.1967368623407353  0.9663461174515859
  0.8121377620580290  0.7493032093290921  0.5584799894633719
  0.1878175912574136  0.0319237438595010  0.9504381428588218
  0.3133230813588028  0.2479411398398526  0.5636740817224677
  0.3444422363542543  0.5824657825324238  0.0440680230130042
  0.7729366529696406  0.0752466139639338  0.4491091674437726
  0.8068450312760973  0.1265847093096326  0.0589371990001126
  0.8052713260113151  0.6557969382892992  0.9504969251854760
  0.6938716217848793  0.6264555228582935  0.5519782160631692
  0.6959013683267372  0.1559638961299186  0.4583616305239886
  0.2266726619823771  0.7050392994276962  0.0619983056414810
  0.7278349636887853  0.5753610975795098  0.9428923999822345
  0.7297855259211019  0.2072502558549303  0.0680081546320963
  0.2702966713326305  0.5733530562063649  0.4444792134483322
  0.1928585306037292  0.6538020963202769  0.4525396382714817
  0.1947653919809866  0.1253359667959728  0.5580342818036215
  0.3062107882662559  0.1546510449609713  0.9566037997864569
  0.7713207783755749  0.7069715226722479  0.5596978955539669
  0.2286960816881773  0.0742125868680930  0.9488996522144646
  0.2723108001103469  0.2057444257630081  0.5656607312912811
  0.3040589015606088  0.6245291969222322  0.0538197179141804
  0.7364936081723883  0.0702031992809040  0.6394161325634684
  0.8044444928887842  0.1721505537625916  0.8729367818643041
  0.8028397743766362  0.6103569987688786  0.1371023408038283
  0.6963442675611020  0.6718973267098605  0.3653617379520000
  0.6982478328750972  0.1103545053055015  0.6441720279429148
  0.2630885168430765  0.7100417625392055  0.8715816694420440
  0.7643712633862236  0.5703455821301944  0.1332525592610310
  0.7661721633611975  0.2122757012077088  0.8775311441816314
  0.2338922796635430  0.5683347553196683  0.6349193344701902
  0.1954138977073256  0.6083363022293682  0.6389754606205429
  0.1972353620925347  0.1707921109317780  0.3715189111849782
  0.3036703008627271  0.1092439423414220  0.1433535765896750
  0.7348096234948471  0.7119340985671982  0.3692637180205267
  0.2651887231638312  0.0692308595216176  0.1393929335147703
  0.2357368027339817  0.2107894308024711  0.3753895604375970
  0.3015193629022050  0.6700040337129138  0.8674513867231042
  0.8886869610674850  0.0002481580980174  0.2483245380011070
  0.8875084421388522  0.7817737844005634  0.7598507221815751
  0.6113557950455686  0.5006112579379760  0.7451903268542850
  0.6131918802952327  0.2817501445505002  0.2657919180755783
  0.1109302078531229  0.7801083137913380  0.2623838625811388
  0.3869480828932907  0.4988717645750995  0.2465840061183968
  0.1124168538850654  0.9994086071622803  0.7493439793742667
  0.3887807775429835  0.2804445022251727  0.7639475618312375
  0.7709660026348288  0.1208707761726444  0.2565658021698880
  0.7692404432842821  0.6614991774837762  0.7529798299004966
  0.7299394089650519  0.6207769476909490  0.7493628524127587
  0.7318673572838890  0.1617049804277855  0.2609572312133750
  0.2287916408997646  0.6595208553082514  0.2550309918376428
  0.2680669509984668  0.6187997497999973  0.2511205715292206
  0.2308101527846134  0.1196471368232395  0.7555112398485377
  0.2701477607415583  0.1603370727199263  0.7591754125724322
  0.9834037404197460  0.8905456932274305  0.0048910121223571
  0.0167593694083692  0.8903303717806565  0.5052400735929723
  0.5163810235842448  0.3905514370842482  0.5053317317413217
  0.4839229142946238  0.3902917156805330  0.0057338969610328
  0.3319885953108397  0.1059311956505766  0.2926614376439716
  0.7619582585899138  0.5347687032587842  0.2788394425776914
  0.7637728618211241  0.2479360826499786  0.7323519708546726
  0.7386995825564213  0.0344467075581818  0.7842021449510668
  0.7371301300720035  0.7475239658815553  0.2236764507058169
  0.6679851669029091  0.6752159164754090  0.2161884297956078
  0.1672034091390415  0.6050340609682081  0.7882851435514553
  0.1688900695557649  0.1741112153493205  0.2223330006425712
  0.8311593058617177  0.6070939592747351  0.2863373076531914
  0.2381161156469176  0.2463815372051030  0.2298366353657002
  0.2363982558410243  0.5327487758495693  0.7805013229571927
  0.2607417177082425  0.7456885311185744  0.7262433028428248
  0.3297989037883653  0.6733315675491127  0.7183306419885724
  0.6699588380895207  0.1070054936479750  0.7933025617481988
  0.8326192028499548  0.1754351265018173  0.7234951697778129
  0.2628171622190010  0.0336468141318491  0.2849767742019580
  0.5546409003591179  0.5002768189557472  0.0536679423721509
  0.4456160855443443  0.2808956336967725  0.4556403276156118
  0.3644258755740495  0.4656651767125126  0.9384907016259518
  0.1346297860737309  0.8127769382897654  0.5708544587192463
  0.0550215059401111  0.9995555919725305  0.0551059351684771
  0.3658642993073258  0.3132054276156850  0.0727493062231872
  0.8650401849815879  0.9673860653358517  0.9404408620914069
  0.9450852224813531  0.7814289644432435  0.4549010306328043
  0.1356400768426980  0.9663817672267214  0.4416614080900132
  0.6342761904645968  0.4676442886218624  0.4370261933881068
  0.5564307770517800  0.2813806132217351  0.9576859340926518
  0.9462413347442933  0.0000129327976666  0.5545693907859643
  0.6357545079788238  0.3150851243454795  0.5734699842037614
  0.4437609842361141  0.4992483738678146  0.5544542372404777
  0.0534587149821135  0.7806896142580797  0.9554808353770312
  0.8641752869758079  0.8149228987456141  0.0670952025367413
  0.9353016268043106  0.9351663476784040  0.1536666014649768
  0.9611890190453991  0.9457316165693896  0.3457735367202162
  0.9346554381837606  0.8465502877699080  0.8549027112930219
  0.5645643937939866  0.4353432567705653  0.6528718084146661
  0.5403526895716340  0.3357361078901064  0.1650040453689527
  0.0387324267862539  0.8349860012537391  0.1644088075387771
  0.5391640628635841  0.4458890223571643  0.8457731497066590
  0.5656415864153601  0.3466468141480874  0.3576081675329803
  0.4599676116571061  0.4450859981050641  0.3462638857749170
  0.0646090019742047  0.8453823322415275  0.3569017325434487
  0.0396748802300806  0.9452532891143761  0.8466941604044322
  0.4611510929152303  0.3350000961883737  0.6647958184498606
  0.9604443038508279  0.8357029340862780  0.6634341050224535
  0.0653709314862354  0.9345095093018898  0.6547868397673398
  0.4357317096143163  0.3454692522721245  0.8578228326361099
  0.4346727488326039  0.4342171334612601  0.1535978046771547
  0.8487420616584771  0.0403402023086059  0.2491916879144682
  0.8473798390795224  0.7418253145725444  0.7591924027564119
  0.6514545279487862  0.5406421822241683  0.7447030795264027
  0.6535536667580431  0.2419142936710443  0.2666324056039358
  0.1507885704167151  0.7399372685719712  0.2615797105429039
  0.3465411530488041  0.5386556455399827  0.2459816787976621
  0.1525566919771322  0.0393666949037836  0.7497533842057251
  0.3486675439034386  0.2404479023492883  0.7640413586293491
  0.8171187884112072  0.9924930236062437  0.6132125943629774
  0.8771594451795224  0.0862344798927523  0.8761137287943797
  0.8760295089315946  0.6959511778020513  0.1322598280832068
  0.6229762867268889  0.5862735799269814  0.3709790021643542
  0.6253200077179883  0.1962074351499155  0.6402892441382519
  0.1824922959283839  0.7877692183045895  0.8976980944221609
  0.6831740710402912  0.4930328016164083  0.1093871217544446
  0.6850862012857704  0.2896512470204513  0.9022265129288840
  0.3151417587551748  0.4910688036577184  0.6109671690762823
  0.1221975066015375  0.6939905596179443  0.6342040600212755
  0.1239976043385838  0.0851661727950770  0.3763607047531465
  0.3770686473037443  0.1948155592188456  0.1378588872135396
  0.8157305409583984  0.7895180458547628  0.3945385140138526
  0.1841727963741775  0.9917769598051720  0.1147039106356189
  0.3170159611479022  0.2880563044462789  0.3992623384315621
  0.3750211051073293  0.5845340476700116  0.8729616820538197
 
  0.00000000E+00  0.00000000E+00  0.00000000E+00
  0.00000000E+00  0.00000000E+00  0.00000000E+00
  0.00000000E+00  0.00000000E+00  0.00000000E+00
  0.00000000E+00  0.00000000E+00  0.00000000E+00
  0.00000000E+00  0.00000000E+00  0.00000000E+00
  0.00000000E+00  0.00000000E+00  0.00000000E+00
  0.00000000E+00  0.00000000E+00  0.00000000E+00
  0.00000000E+00  0.00000000E+00  0.00000000E+00
  0.00000000E+00  0.00000000E+00  0.00000000E+00
  0.00000000E+00  0.00000000E+00  0.00000000E+00
  0.00000000E+00  0.00000000E+00  0.00000000E+00
  0.00000000E+00  0.00000000E+00  0.00000000E+00
  0.00000000E+00  0.00000000E+00  0.00000000E+00
  0.00000000E+00  0.00000000E+00  0.00000000E+00
  0.00000000E+00  0.00000000E+00  0.00000000E+00
  0.00000000E+00  0.00000000E+00  0.00000000E+00
  0.00000000E+00  0.00000000E+00  0.00000000E+00
  0.00000000E+00  0.00000000E+00  0.00000000E+00
  0.00000000E+00  0.00000000E+00  0.00000000E+00
  0.00000000E+00  0.00000000E+00  0.00000000E+00
  0.00000000E+00  0.00000000E+00  0.00000000E+00
  0.00000000E+00  0.00000000E+00  0.00000000E+00
  0.00000000E+00  0.00000000E+00  0.00000000E+00
  0.00000000E+00  0.00000000E+00  0.00000000E+00
  0.00000000E+00  0.00000000E+00  0.00000000E+00
  0.00000000E+00  0.00000000E+00  0.00000000E+00
  0.00000000E+00  0.00000000E+00  0.00000000E+00
  0.00000000E+00  0.00000000E+00  0.00000000E+00
  0.00000000E+00  0.00000000E+00  0.00000000E+00
  0.00000000E+00  0.00000000E+00  0.00000000E+00
  0.00000000E+00  0.00000000E+00  0.00000000E+00
  0.00000000E+00  0.00000000E+00  0.00000000E+00
  0.00000000E+00  0.00000000E+00  0.00000000E+00
  0.00000000E+00  0.00000000E+00  0.00000000E+00
  0.00000000E+00  0.00000000E+00  0.00000000E+00
  0.00000000E+00  0.00000000E+00  0.00000000E+00
  0.00000000E+00  0.00000000E+00  0.00000000E+00
  0.00000000E+00  0.00000000E+00  0.00000000E+00
  0.00000000E+00  0.00000000E+00  0.00000000E+00
  0.00000000E+00  0.00000000E+00  0.00000000E+00
  0.00000000E+00  0.00000000E+00  0.00000000E+00
  0.00000000E+00  0.00000000E+00  0.00000000E+00
  0.00000000E+00  0.00000000E+00  0.00000000E+00
  0.00000000E+00  0.00000000E+00  0.00000000E+00
  0.00000000E+00  0.00000000E+00  0.00000000E+00
  0.00000000E+00  0.00000000E+00  0.00000000E+00
  0.00000000E+00  0.00000000E+00  0.00000000E+00
  0.00000000E+00  0.00000000E+00  0.00000000E+00
  0.00000000E+00  0.00000000E+00  0.00000000E+00
  0.00000000E+00  0.00000000E+00  0.00000000E+00
  0.00000000E+00  0.00000000E+00  0.00000000E+00
  0.00000000E+00  0.00000000E+00  0.00000000E+00
  0.00000000E+00  0.00000000E+00  0.00000000E+00
  0.00000000E+00  0.00000000E+00  0.00000000E+00
  0.00000000E+00  0.00000000E+00  0.00000000E+00
  0.00000000E+00  0.00000000E+00  0.00000000E+00
  0.00000000E+00  0.00000000E+00  0.00000000E+00
  0.00000000E+00  0.00000000E+00  0.00000000E+00
  0.00000000E+00  0.00000000E+00  0.00000000E+00
  0.00000000E+00  0.00000000E+00  0.00000000E+00
  0.00000000E+00  0.00000000E+00  0.00000000E+00
  0.00000000E+00  0.00000000E+00  0.00000000E+00
  0.00000000E+00  0.00000000E+00  0.00000000E+00
  0.00000000E+00  0.00000000E+00  0.00000000E+00
  0.00000000E+00  0.00000000E+00  0.00000000E+00
  0.00000000E+00  0.00000000E+00  0.00000000E+00
  0.00000000E+00  0.00000000E+00  0.00000000E+00
  0.00000000E+00  0.00000000E+00  0.00000000E+00
  0.00000000E+00  0.00000000E+00  0.00000000E+00
  0.00000000E+00  0.00000000E+00  0.00000000E+00
  0.00000000E+00  0.00000000E+00  0.00000000E+00
  0.00000000E+00  0.00000000E+00  0.00000000E+00
  0.00000000E+00  0.00000000E+00  0.00000000E+00
  0.00000000E+00  0.00000000E+00  0.00000000E+00
  0.00000000E+00  0.00000000E+00  0.00000000E+00
  0.00000000E+00  0.00000000E+00  0.00000000E+00
  0.00000000E+00  0.00000000E+00  0.00000000E+00
  0.00000000E+00  0.00000000E+00  0.00000000E+00
  0.00000000E+00  0.00000000E+00  0.00000000E+00
  0.00000000E+00  0.00000000E+00  0.00000000E+00
  0.00000000E+00  0.00000000E+00  0.00000000E+00
  0.00000000E+00  0.00000000E+00  0.00000000E+00
  0.00000000E+00  0.00000000E+00  0.00000000E+00
  0.00000000E+00  0.00000000E+00  0.00000000E+00
  0.00000000E+00  0.00000000E+00  0.00000000E+00
  0.00000000E+00  0.00000000E+00  0.00000000E+00
  0.00000000E+00  0.00000000E+00  0.00000000E+00
  0.00000000E+00  0.00000000E+00  0.00000000E+00
  0.00000000E+00  0.00000000E+00  0.00000000E+00
  0.00000000E+00  0.00000000E+00  0.00000000E+00
  0.00000000E+00  0.00000000E+00  0.00000000E+00
  0.00000000E+00  0.00000000E+00  0.00000000E+00
  0.00000000E+00  0.00000000E+00  0.00000000E+00
  0.00000000E+00  0.00000000E+00  0.00000000E+00
  0.00000000E+00  0.00000000E+00  0.00000000E+00
  0.00000000E+00  0.00000000E+00  0.00000000E+00
  0.00000000E+00  0.00000000E+00  0.00000000E+00
  0.00000000E+00  0.00000000E+00  0.00000000E+00
  0.00000000E+00  0.00000000E+00  0.00000000E+00
  0.00000000E+00  0.00000000E+00  0.00000000E+00
  0.00000000E+00  0.00000000E+00  0.00000000E+00
  0.00000000E+00  0.00000000E+00  0.00000000E+00
  0.00000000E+00  0.00000000E+00  0.00000000E+00
  0.00000000E+00  0.00000000E+00  0.00000000E+00
  0.00000000E+00  0.00000000E+00  0.00000000E+00
  0.00000000E+00  0.00000000E+00  0.00000000E+00
  0.00000000E+00  0.00000000E+00  0.00000000E+00
  0.00000000E+00  0.00000000E+00  0.00000000E+00
  0.00000000E+00  0.00000000E+00  0.00000000E+00
  0.00000000E+00  0.00000000E+00  0.00000000E+00
  0.00000000E+00  0.00000000E+00  0.00000000E+00
  0.00000000E+00  0.00000000E+00  0.00000000E+00
  0.00000000E+00  0.00000000E+00  0.00000000E+00
  0.00000000E+00  0.00000000E+00  0.00000000E+00
  0.00000000E+00  0.00000000E+00  0.00000000E+00
  0.00000000E+00  0.00000000E+00  0.00000000E+00
  0.00000000E+00  0.00000000E+00  0.00000000E+00
  0.00000000E+00  0.00000000E+00  0.00000000E+00
  0.00000000E+00  0.00000000E+00  0.00000000E+00
  0.00000000E+00  0.00000000E+00  0.00000000E+00
  0.00000000E+00  0.00000000E+00  0.00000000E+00
  0.00000000E+00  0.00000000E+00  0.00000000E+00
  0.00000000E+00  0.00000000E+00  0.00000000E+00
  0.00000000E+00  0.00000000E+00  0.00000000E+00
  0.00000000E+00  0.00000000E+00  0.00000000E+00
  0.00000000E+00  0.00000000E+00  0.00000000E+00
  0.00000000E+00  0.00000000E+00  0.00000000E+00
  0.00000000E+00  0.00000000E+00  0.00000000E+00
  0.00000000E+00  0.00000000E+00  0.00000000E+00
  0.00000000E+00  0.00000000E+00  0.00000000E+00
  0.00000000E+00  0.00000000E+00  0.00000000E+00
  0.00000000E+00  0.00000000E+00  0.00000000E+00
  0.00000000E+00  0.00000000E+00  0.00000000E+00
  0.00000000E+00  0.00000000E+00  0.00000000E+00
  0.00000000E+00  0.00000000E+00  0.00000000E+00
  0.00000000E+00  0.00000000E+00  0.00000000E+00
  0.00000000E+00  0.00000000E+00  0.00000000E+00
  0.00000000E+00  0.00000000E+00  0.00000000E+00
  0.00000000E+00  0.00000000E+00  0.00000000E+00
  0.00000000E+00  0.00000000E+00  0.00000000E+00
  0.00000000E+00  0.00000000E+00  0.00000000E+00
  0.00000000E+00  0.00000000E+00  0.00000000E+00
  0.00000000E+00  0.00000000E+00  0.00000000E+00
  0.00000000E+00  0.00000000E+00  0.00000000E+00
  0.00000000E+00  0.00000000E+00  0.00000000E+00
  0.00000000E+00  0.00000000E+00  0.00000000E+00
  0.00000000E+00  0.00000000E+00  0.00000000E+00
  0.00000000E+00  0.00000000E+00  0.00000000E+00
  0.00000000E+00  0.00000000E+00  0.00000000E+00
  0.00000000E+00  0.00000000E+00  0.00000000E+00
  0.00000000E+00  0.00000000E+00  0.00000000E+00
  0.00000000E+00  0.00000000E+00  0.00000000E+00
  0.00000000E+00  0.00000000E+00  0.00000000E+00
  0.00000000E+00  0.00000000E+00  0.00000000E+00
  0.00000000E+00  0.00000000E+00  0.00000000E+00
  0.00000000E+00  0.00000000E+00  0.00000000E+00
