 C Fe  H  N  O                          
   1.00000000000000     
     8.7997920128113805    0.0005163053061523   -0.0030679099663510
     0.0045222963764776   32.9039289890006970    2.8540296648290999
    -0.0013516070513865    0.6642025064002552    5.9327408428202695
   C    Fe   H    N    O 
    80     4    32    24    16
Direct
  0.7633100544615345  0.9510146938162123  0.9945679670089902
  0.8915644975490338  0.9544127273466998  0.3133934303686061
  0.7504572821511744  0.7995155460173535  0.8430563911634010
  0.7356433639221507  0.4510806988925182  0.4930923747743279
  0.6213906369981999  0.2948760420630663  0.0239122078087419
  0.1082286123139227  0.7933297964970194  0.0298086121974492
  0.6073673656480665  0.4544321510565155  0.8117466648410598
  0.7485598003366079  0.2996378627310747  0.3416296576397784
  0.3766999794820691  0.4530065673617116  0.3144910447922342
  0.2367885757278074  0.7967750468370554  0.3482786583358717
  0.1221652832566988  0.9529420755819586  0.8168375129275134
  0.3909551675352176  0.2933950963896947  0.5274234472458588
  0.8780938856031639  0.7948006941841328  0.5258571929424534
  0.2493440792757227  0.9482091577997380  0.4992479295694423
  0.2625632115320542  0.2968487513717051  0.8458276581952973
  0.2495782947115543  0.4483577007156683  0.9965591486443230
  0.6988806003057206  0.0302084182466942  0.3248824597744644
  0.8460200199426353  0.0481054916147556  0.9584558338856297
  0.8233185199707833  0.7021058294133624  0.8799968162000766
  0.6526265297786296  0.5481600570940159  0.4580347019742348
  0.6762882313985088  0.2022344075298506  0.3794536400357984
  0.3011356625938433  0.7176516052016595  0.0179393385500290
  0.7999921789678552  0.5301392128821760  0.8244158603296867
  0.8231475436428468  0.2203572109590652  0.0129171612836743
  0.1751542011998808  0.5275187973479163  0.3260637030935456
  0.1533059969567745  0.6996344691768712  0.3836627992208861
  0.1766625128310082  0.0455914344279407  0.4613766725618333
  0.3458656558186703  0.1997468052210891  0.8824866384578911
  0.6764567914478832  0.7203590383513685  0.5132551947923005
  0.3239663073834009  0.0274896656496679  0.8278428400411499
  0.1985427198943412  0.2176019865173515  0.5159762517541253
  0.3226935319210114  0.5457700735525179  0.9602147508168173
  0.6979592061787585  0.0742990238964225  0.3371852867951830
  0.8359540543139090  0.0920424087826035  0.9730825092778730
  0.8120264885487387  0.6582263623834450  0.8652578742935191
  0.6630483361075932  0.5920884629651297  0.4727216807780792
  0.6873518615729779  0.1583392320202250  0.3649629758581483
  0.3017501531298379  0.6735998304847186  0.0048439145027146
  0.8009831306697777  0.5742144585476368  0.8370721286794947
  0.8253820716210143  0.1761964533733646  0.0010185270948710
  0.1734810869852765  0.5716315368741078  0.3390653804438983
  0.1633397903343550  0.6557257616503307  0.3684860985094929
  0.1874161326609780  0.0894792600645857  0.4760430752246734
  0.3358710756897878  0.1557968623612140  0.8680606319996400
  0.6741188907398055  0.6762138497630943  0.5010175672657553
  0.3256484363767811  0.0716344442889252  0.8400805358560319
  0.1976887633845195  0.1735073562445706  0.5039014661172629
  0.3118483247382997  0.5896302715069126  0.9755010982642176
  0.6288559404333398  0.0866802186856930  0.5216393821897896
  0.9008849462389605  0.1219898013613729  0.8036156738524767
  0.8761920084115857  0.6282600031644563  0.0353498777217212
  0.5983801831860589  0.6220884415344514  0.3031137158220290
  0.6229961823597279  0.1284241922250899  0.5350352731926193
  0.3708243523247745  0.6613060079810325  0.8201006324296216
  0.8700514647310342  0.5865238147573990  0.0218529999129373
  0.8949200419768957  0.1637551456598203  0.8169307555545586
  0.1039413968339389  0.5839875719643999  0.5233911689982023
  0.0982138100362633  0.6257215373273084  0.5374441740912062
  0.1229383482007265  0.1193870459019379  0.3059367648592470
  0.4008853841384408  0.1258551660333822  0.0376545392026486
  0.6046701161954289  0.6638484332967352  0.3165452366641190
  0.3950651691573555  0.0840860168205850  0.0243151106635651
  0.1286104601761551  0.1611251353760181  0.3193435945885597
  0.3763977708098309  0.6196017194189452  0.8059210414563296
  0.8003551937568716  0.9773194938429910  0.1435154064398603
  0.7831354054718318  0.7729139008745491  0.6938442257936828
  0.6985869241814981  0.4773512242307802  0.6421829463248656
  0.7162026640431804  0.2730073564905169  0.1924272294322193
  0.1995581378074007  0.7704463627963278  0.1996240855882760
  0.2820585005321306  0.4749416956452990  0.1459643889083679
  0.2168944667123114  0.9748259410424751  0.6484494707214523
  0.2997960128827302  0.2705092580006152  0.6972536721152878
  0.7640788145816444  0.1039472004413611  0.1617183685534584
  0.7401086444753346  0.6464588695892672  0.6762610561727769
  0.7350265475754014  0.6039196901504198  0.6615624037013390
  0.7591980767910940  0.1464968286749837  0.1762008108946844
  0.2353178348874394  0.6439028981176307  0.1797139208973988
  0.2399957634418612  0.6013814401968745  0.1645028455532227
  0.2592197823026865  0.1013225840531931  0.6649130314793439
  0.2639525832245297  0.1438708327932119  0.6794235712206103
  0.9437167897903862  0.8741661640114913  0.9203857232945012
  0.0562457239894130  0.8735937946497501  0.4221896262803426
  0.5552870794481422  0.3742557531132391  0.4183131543065741
  0.4427094683446882  0.3736692695222885  0.9199472551740229
  0.4531592755523661  0.1356239363320810  0.1830793743148789
  0.9170043737988607  0.5627969476553005  0.1562027306964779
  0.9418755726943360  0.1874599982796568  0.6825110479933514
  0.5817423296594129  0.0629886781512852  0.6558900602797735
  0.5580277180258904  0.6875965393678456  0.1819273603450853
  0.5460248017148430  0.6123561926869030  0.1576257262415055
  0.0458367594761881  0.6354310168404638  0.6829015228291908
  0.0710712761333809  0.1095803113411478  0.1604013371051636
  0.9282394429722700  0.6380120113731635  0.1809181244193638
  0.0814326978432902  0.1848111312072618  0.1850115917477098
  0.0566918766484150  0.5602478029539952  0.6573653851882639
  0.4181958723173338  0.6850366298853459  0.6862838542679270
  0.4283253598956165  0.6098632859903077  0.6602713391423123
  0.5710315485257524  0.1382233640277022  0.6804570079186050
  0.9532290842054820  0.1122081191745892  0.6583399887608152
  0.4420838895966384  0.0603884664376295  0.1588396972727537
  0.5542764046853605  0.4641715278820868  0.9560807608351851
  0.4441540198965654  0.2835939862045151  0.3833398736718650
  0.1826717481416082  0.4538184288212506  0.8404380046709221
  0.3034589928281974  0.7907090839066484  0.5045814689541288
  0.0705621826463698  0.9632916289205724  0.9604615598191657
  0.1960248862298357  0.2907798480483521  0.0021213608958064
  0.6968009839464102  0.9571201184396969  0.8381269398829616
  0.9297908166316802  0.7844717878434935  0.3822582301988362
  0.3162279686306846  0.9536336089671735  0.3432363456709737
  0.8021841411940969  0.4572064935472682  0.3368172047933129
  0.5698983194374634  0.2845309131634366  0.8801262577796294
  0.9446676277153898  0.9641732352243650  0.4577366348082137
  0.8155016570473919  0.2942235462074336  0.4977292337847246
  0.4282169249565868  0.4633117927304866  0.4583786641104481
  0.0549240830848845  0.7835180455527606  0.8857794772713490
  0.6833721571517017  0.7940728633892604  0.9988688024614945
  0.8311054879981512  0.9140350221468267  0.0723479491793810
  0.9102186501779315  0.9165315773096552  0.2680880623925290
  0.8241580476547270  0.8356780427277997  0.7670452113286075
  0.6678239077678327  0.4141057182707044  0.5705215692588368
  0.5964690516554398  0.3324563025203418  0.0700699252050541
  0.0896699579923137  0.8312259362316965  0.0748257795050549
  0.5886993203229380  0.4165783866399764  0.7661428808742485
  0.6748693758339073  0.3357982499477785  0.2650988413668856
  0.4014541379362129  0.4154352439521105  0.2681874003230433
  0.1689945607619592  0.8337575861116306  0.2703479442429852
  0.0973849260903918  0.9153613023917160  0.7706236235253456
  0.4094232478650852  0.3312981402458846  0.5724106231773476
  0.9028194904913676  0.8323675999903628  0.5722980593069025
  0.1757909658522152  0.9120377506235116  0.5756819135023221
  0.3302040590111446  0.3338293399231347  0.7678779394701394
  0.3230732565806420  0.4121594458666280  0.0730151002144979
  0.7707864289310109  0.0198896000148068  0.1320937508585374
  0.7492706808408514  0.7305311079609922  0.7060266696430872
  0.7281824373859180  0.5199009075441836  0.6312450196642132
  0.7501392503598936  0.2306105205010880  0.2051941050719392
  0.2291463865366694  0.7278815764097573  0.2108574941227630
  0.2483529718097159  0.5173449946374973  0.1337084254603766
  0.2506150683640271  0.0172266855966896  0.6357435150763564
  0.2703529262165887  0.2279353735689966  0.7088581881143270
  0.6401232682273488  0.0034486154662616  0.4720912236718604
  0.9154212698497162  0.0359426559199747  0.8051797650508448
  0.8933668659309077  0.7140268268068652  0.0335658041638354
  0.5827152043612358  0.5360447717535166  0.3049784891573424
  0.6064428705851341  0.2142123760599333  0.5329473189568077
  0.3601712092771265  0.7444546545180373  0.8712544234874500
  0.8586971455092183  0.5033305857297989  0.9715860195630484
  0.8809208411796803  0.2472357962312159  0.8654112416566093
  0.1167415824172977  0.5006104567287721  0.4727345304091202
  0.0834283041452508  0.7117667924082625  0.5366084432230380
  0.1070227418788150  0.0336239245528844  0.3075718417345357
  0.4155063040931850  0.2119508723307462  0.0355143570825334
  0.6188401100823455  0.7472859349012140  0.3657097505715186
  0.3825324465912558  0.0006375801909897  0.9748239972229698
  0.1398217875370094  0.2443541839088468  0.3685049339110620
  0.3927068459969476  0.5338627343840585  0.8066497496069616
 
  0.00000000E+00  0.00000000E+00  0.00000000E+00
  0.00000000E+00  0.00000000E+00  0.00000000E+00
  0.00000000E+00  0.00000000E+00  0.00000000E+00
  0.00000000E+00  0.00000000E+00  0.00000000E+00
  0.00000000E+00  0.00000000E+00  0.00000000E+00
  0.00000000E+00  0.00000000E+00  0.00000000E+00
  0.00000000E+00  0.00000000E+00  0.00000000E+00
  0.00000000E+00  0.00000000E+00  0.00000000E+00
  0.00000000E+00  0.00000000E+00  0.00000000E+00
  0.00000000E+00  0.00000000E+00  0.00000000E+00
  0.00000000E+00  0.00000000E+00  0.00000000E+00
  0.00000000E+00  0.00000000E+00  0.00000000E+00
  0.00000000E+00  0.00000000E+00  0.00000000E+00
  0.00000000E+00  0.00000000E+00  0.00000000E+00
  0.00000000E+00  0.00000000E+00  0.00000000E+00
  0.00000000E+00  0.00000000E+00  0.00000000E+00
  0.00000000E+00  0.00000000E+00  0.00000000E+00
  0.00000000E+00  0.00000000E+00  0.00000000E+00
  0.00000000E+00  0.00000000E+00  0.00000000E+00
  0.00000000E+00  0.00000000E+00  0.00000000E+00
  0.00000000E+00  0.00000000E+00  0.00000000E+00
  0.00000000E+00  0.00000000E+00  0.00000000E+00
  0.00000000E+00  0.00000000E+00  0.00000000E+00
  0.00000000E+00  0.00000000E+00  0.00000000E+00
  0.00000000E+00  0.00000000E+00  0.00000000E+00
  0.00000000E+00  0.00000000E+00  0.00000000E+00
  0.00000000E+00  0.00000000E+00  0.00000000E+00
  0.00000000E+00  0.00000000E+00  0.00000000E+00
  0.00000000E+00  0.00000000E+00  0.00000000E+00
  0.00000000E+00  0.00000000E+00  0.00000000E+00
  0.00000000E+00  0.00000000E+00  0.00000000E+00
  0.00000000E+00  0.00000000E+00  0.00000000E+00
  0.00000000E+00  0.00000000E+00  0.00000000E+00
  0.00000000E+00  0.00000000E+00  0.00000000E+00
  0.00000000E+00  0.00000000E+00  0.00000000E+00
  0.00000000E+00  0.00000000E+00  0.00000000E+00
  0.00000000E+00  0.00000000E+00  0.00000000E+00
  0.00000000E+00  0.00000000E+00  0.00000000E+00
  0.00000000E+00  0.00000000E+00  0.00000000E+00
  0.00000000E+00  0.00000000E+00  0.00000000E+00
  0.00000000E+00  0.00000000E+00  0.00000000E+00
  0.00000000E+00  0.00000000E+00  0.00000000E+00
  0.00000000E+00  0.00000000E+00  0.00000000E+00
  0.00000000E+00  0.00000000E+00  0.00000000E+00
  0.00000000E+00  0.00000000E+00  0.00000000E+00
  0.00000000E+00  0.00000000E+00  0.00000000E+00
  0.00000000E+00  0.00000000E+00  0.00000000E+00
  0.00000000E+00  0.00000000E+00  0.00000000E+00
  0.00000000E+00  0.00000000E+00  0.00000000E+00
  0.00000000E+00  0.00000000E+00  0.00000000E+00
  0.00000000E+00  0.00000000E+00  0.00000000E+00
  0.00000000E+00  0.00000000E+00  0.00000000E+00
  0.00000000E+00  0.00000000E+00  0.00000000E+00
  0.00000000E+00  0.00000000E+00  0.00000000E+00
  0.00000000E+00  0.00000000E+00  0.00000000E+00
  0.00000000E+00  0.00000000E+00  0.00000000E+00
  0.00000000E+00  0.00000000E+00  0.00000000E+00
  0.00000000E+00  0.00000000E+00  0.00000000E+00
  0.00000000E+00  0.00000000E+00  0.00000000E+00
  0.00000000E+00  0.00000000E+00  0.00000000E+00
  0.00000000E+00  0.00000000E+00  0.00000000E+00
  0.00000000E+00  0.00000000E+00  0.00000000E+00
  0.00000000E+00  0.00000000E+00  0.00000000E+00
  0.00000000E+00  0.00000000E+00  0.00000000E+00
  0.00000000E+00  0.00000000E+00  0.00000000E+00
  0.00000000E+00  0.00000000E+00  0.00000000E+00
  0.00000000E+00  0.00000000E+00  0.00000000E+00
  0.00000000E+00  0.00000000E+00  0.00000000E+00
  0.00000000E+00  0.00000000E+00  0.00000000E+00
  0.00000000E+00  0.00000000E+00  0.00000000E+00
  0.00000000E+00  0.00000000E+00  0.00000000E+00
  0.00000000E+00  0.00000000E+00  0.00000000E+00
  0.00000000E+00  0.00000000E+00  0.00000000E+00
  0.00000000E+00  0.00000000E+00  0.00000000E+00
  0.00000000E+00  0.00000000E+00  0.00000000E+00
  0.00000000E+00  0.00000000E+00  0.00000000E+00
  0.00000000E+00  0.00000000E+00  0.00000000E+00
  0.00000000E+00  0.00000000E+00  0.00000000E+00
  0.00000000E+00  0.00000000E+00  0.00000000E+00
  0.00000000E+00  0.00000000E+00  0.00000000E+00
  0.00000000E+00  0.00000000E+00  0.00000000E+00
  0.00000000E+00  0.00000000E+00  0.00000000E+00
  0.00000000E+00  0.00000000E+00  0.00000000E+00
  0.00000000E+00  0.00000000E+00  0.00000000E+00
  0.00000000E+00  0.00000000E+00  0.00000000E+00
  0.00000000E+00  0.00000000E+00  0.00000000E+00
  0.00000000E+00  0.00000000E+00  0.00000000E+00
  0.00000000E+00  0.00000000E+00  0.00000000E+00
  0.00000000E+00  0.00000000E+00  0.00000000E+00
  0.00000000E+00  0.00000000E+00  0.00000000E+00
  0.00000000E+00  0.00000000E+00  0.00000000E+00
  0.00000000E+00  0.00000000E+00  0.00000000E+00
  0.00000000E+00  0.00000000E+00  0.00000000E+00
  0.00000000E+00  0.00000000E+00  0.00000000E+00
  0.00000000E+00  0.00000000E+00  0.00000000E+00
  0.00000000E+00  0.00000000E+00  0.00000000E+00
  0.00000000E+00  0.00000000E+00  0.00000000E+00
  0.00000000E+00  0.00000000E+00  0.00000000E+00
  0.00000000E+00  0.00000000E+00  0.00000000E+00
  0.00000000E+00  0.00000000E+00  0.00000000E+00
  0.00000000E+00  0.00000000E+00  0.00000000E+00
  0.00000000E+00  0.00000000E+00  0.00000000E+00
  0.00000000E+00  0.00000000E+00  0.00000000E+00
  0.00000000E+00  0.00000000E+00  0.00000000E+00
  0.00000000E+00  0.00000000E+00  0.00000000E+00
  0.00000000E+00  0.00000000E+00  0.00000000E+00
  0.00000000E+00  0.00000000E+00  0.00000000E+00
  0.00000000E+00  0.00000000E+00  0.00000000E+00
  0.00000000E+00  0.00000000E+00  0.00000000E+00
  0.00000000E+00  0.00000000E+00  0.00000000E+00
  0.00000000E+00  0.00000000E+00  0.00000000E+00
  0.00000000E+00  0.00000000E+00  0.00000000E+00
  0.00000000E+00  0.00000000E+00  0.00000000E+00
  0.00000000E+00  0.00000000E+00  0.00000000E+00
  0.00000000E+00  0.00000000E+00  0.00000000E+00
  0.00000000E+00  0.00000000E+00  0.00000000E+00
  0.00000000E+00  0.00000000E+00  0.00000000E+00
  0.00000000E+00  0.00000000E+00  0.00000000E+00
  0.00000000E+00  0.00000000E+00  0.00000000E+00
  0.00000000E+00  0.00000000E+00  0.00000000E+00
  0.00000000E+00  0.00000000E+00  0.00000000E+00
  0.00000000E+00  0.00000000E+00  0.00000000E+00
  0.00000000E+00  0.00000000E+00  0.00000000E+00
  0.00000000E+00  0.00000000E+00  0.00000000E+00
  0.00000000E+00  0.00000000E+00  0.00000000E+00
  0.00000000E+00  0.00000000E+00  0.00000000E+00
  0.00000000E+00  0.00000000E+00  0.00000000E+00
  0.00000000E+00  0.00000000E+00  0.00000000E+00
  0.00000000E+00  0.00000000E+00  0.00000000E+00
  0.00000000E+00  0.00000000E+00  0.00000000E+00
  0.00000000E+00  0.00000000E+00  0.00000000E+00
  0.00000000E+00  0.00000000E+00  0.00000000E+00
  0.00000000E+00  0.00000000E+00  0.00000000E+00
  0.00000000E+00  0.00000000E+00  0.00000000E+00
  0.00000000E+00  0.00000000E+00  0.00000000E+00
  0.00000000E+00  0.00000000E+00  0.00000000E+00
  0.00000000E+00  0.00000000E+00  0.00000000E+00
  0.00000000E+00  0.00000000E+00  0.00000000E+00
  0.00000000E+00  0.00000000E+00  0.00000000E+00
  0.00000000E+00  0.00000000E+00  0.00000000E+00
  0.00000000E+00  0.00000000E+00  0.00000000E+00
  0.00000000E+00  0.00000000E+00  0.00000000E+00
  0.00000000E+00  0.00000000E+00  0.00000000E+00
  0.00000000E+00  0.00000000E+00  0.00000000E+00
  0.00000000E+00  0.00000000E+00  0.00000000E+00
  0.00000000E+00  0.00000000E+00  0.00000000E+00
  0.00000000E+00  0.00000000E+00  0.00000000E+00
  0.00000000E+00  0.00000000E+00  0.00000000E+00
  0.00000000E+00  0.00000000E+00  0.00000000E+00
  0.00000000E+00  0.00000000E+00  0.00000000E+00
  0.00000000E+00  0.00000000E+00  0.00000000E+00
  0.00000000E+00  0.00000000E+00  0.00000000E+00
  0.00000000E+00  0.00000000E+00  0.00000000E+00
  0.00000000E+00  0.00000000E+00  0.00000000E+00
  0.00000000E+00  0.00000000E+00  0.00000000E+00
  0.00000000E+00  0.00000000E+00  0.00000000E+00
