FeH_7                                   
   1.00000000000000     
     9.8175908276169022   -0.0001178837493449    0.0006980974104599
    -0.0037818223321496   32.9540427716809390    2.4800934337414922
     0.0013278294101919    0.5325395397758744    5.6648574344942482
   C    Fe   H    N    O 
    80     4    32    24    16
Direct
  0.7784888350936470  0.9523724034426237  0.0677561993331750
  0.8910258341831465  0.9584264624915804  0.4016883703881504
  0.7753792082678288  0.8028319641384343  0.9123169106671298
  0.7213348021991592  0.4525445143827866  0.5647120559712988
  0.6123820092367538  0.2965758195125616  0.0743931409482741
  0.1078337049349116  0.7959229641029992  0.0792046731007403
  0.6087075308944989  0.4584775605005689  0.8988475895804555
  0.7245313542936316  0.3029513328588038  0.4081456502240215
  0.3882794685656279  0.4579455915872472  0.3999596516640480
  0.2203145234829762  0.8019049197133086  0.4132921860160863
  0.1117235630135625  0.9579136194740698  0.9026858497496590
  0.3916844456964697  0.2960444723030378  0.5754273829791785
  0.8874644966844087  0.7964678248725860  0.5783372376494285
  0.2237864648493328  0.9515072928669355  0.5687573245990265
  0.2792045143870112  0.3020421489891163  0.9095936771213360
  0.2759897042139485  0.4516305991163421  0.0662329549467913
  0.6997066007869108  0.0331716494882883  0.3989499755263921
  0.8415097719608156  0.0495815169402647  0.0268908484466053
  0.8355704764102612  0.7055314549345937  0.9523974001084312
  0.6583501746192155  0.5497707813528550  0.5259715685874795
  0.6643301462765976  0.2057343100420468  0.4494339446994076
  0.2993876374804856  0.7213269983578030  0.0807269785389266
  0.8001490914377030  0.5331184842782406  0.8977270412088245
  0.8055203714078587  0.2222078257187690  0.0766864581370825
  0.1947038196304263  0.5321492647907462  0.3990980936011539
  0.1577710741673926  0.7046135614049120  0.4528821646743282
  0.1638593785482527  0.0487573291708117  0.5274580587774906
  0.3418921968932196  0.2048442911720088  0.9497286678830008
  0.6943468116391998  0.7222200483830008  0.5799727798308538
  0.3051276023744691  0.0322391213793907  0.8999262871053020
  0.2001702180596965  0.2213188682292255  0.5778052426880791
  0.3359781385564702  0.5489226693334288  0.0265960398440583
  0.6910921974974542  0.0775268171834753  0.4068270921509693
  0.8293872479548270  0.0936088376216091  0.0416321036755605
  0.8234274072454681  0.6615582699524438  0.9365042535853334
  0.6704745471060320  0.5937521758132007  0.5418252110185406
  0.6764391335229547  0.1617239807670501  0.4345149057289888
  0.3083022054445905  0.6770093399142212  0.0718870192385950
  0.8087417574940474  0.5774359034252470  0.9067175474207687
  0.8145568155577010  0.1778380655885101  0.0691298441912522
  0.1854214909332796  0.5764810809918330  0.4076440547916391
  0.1700708780664826  0.6606297079226167  0.4370105986087083
  0.1763151744567111  0.0927713347940227  0.5421394849528127
  0.3296189119635784  0.1608244587429155  0.9349466876088357
  0.6853402852033668  0.6778917184820585  0.5713705331659966
  0.3143536625143994  0.0766067133903761  0.9075003323406392
  0.1914213976026744  0.1769677836048515  0.5698305216648265
  0.3235422652563287  0.5928926903060443  0.0423883246710872
  0.6198525136060837  0.0908586644266265  0.5910904124506402
  0.8936895773514522  0.1226437755304843  0.8721528939591536
  0.8873938255382186  0.6324274291398382  0.1057224191085524
  0.6061743553857610  0.6228768725300071  0.3729862368533219
  0.6124314832215916  0.1326956625411668  0.6043636641344818
  0.3797241289149014  0.6638451696621530  0.8872892854540950
  0.8799632652796419  0.5906323900430621  0.0913870349917900
  0.8861053050182974  0.1644877649951226  0.8852438547455606
  0.1137800900698096  0.5896594724330342  0.5919839721157771
  0.1059548378823649  0.6314665958464900  0.6060265573565431
  0.1124427884355441  0.1218275525221486  0.3723571808207353
  0.3937920718728307  0.1317730561975097  0.1043953189427000
  0.6137867131949974  0.6646798788038879  0.3871037844571035
  0.3859674837097984  0.0899279009165923  0.0913799639848563
  0.1200917871938216  0.1636618571227544  0.3856280015230169
  0.3874441929003893  0.6220490573666169  0.8730960422006149
  0.8075259990755583  0.9796870056949203  0.2240518623646039
  0.8031913296644007  0.7754664777652636  0.7557143652609284
  0.6923000033212858  0.4797871901979960  0.7214578903418740
  0.6967378202989565  0.2755892706640068  0.2515691836367253
  0.1912480911766892  0.7746204827536474  0.2568277626503885
  0.3038292804816223  0.4789564134557338  0.2230284126864888
  0.1960358161420146  0.9788903856851263  0.7252413719301742
  0.3081693634934766  0.2747591831565899  0.7530552764722458
  0.7564511691052331  0.1063505708668515  0.2309793039868424
  0.7506401006480772  0.6489647391288784  0.7465889154965453
  0.7434160033000765  0.6063580544465808  0.7315125506899989
  0.7492384433736774  0.1490006802703761  0.2449653560593532
  0.2430992775534122  0.6480575123478971  0.2472384596730706
  0.2505930867274344  0.6054484234895483  0.2322912718321817
  0.2491925958457273  0.1054670787748790  0.7316445516205050
  0.2566144228670808  0.1481149774725807  0.7456379896929946
  0.9521209727874052  0.8772641484499317  0.9904224952827931
  0.0469590402275841  0.8771158167609769  0.4904643170158280
  0.5478320366782157  0.3773462971600807  0.4869680810251609
  0.4527142970371969  0.3772042428338551  0.9870686992220996
  0.4482316253521503  0.1423249357290288  0.2491388746743084
  0.9281063730979682  0.5676334712389632  0.2250217982388776
  0.9343238808822321  0.1873967691563863  0.7510936677109044
  0.5717275150992762  0.0679356203631727  0.7252748554563340
  0.5655711188272932  0.6876760822300838  0.2535161091324483
  0.5517865120018115  0.6124116658060927  0.2279054987381599
  0.0515389557112016  0.6419029565323555  0.7512011482571737
  0.0583172538420698  0.1112813637813943  0.2272916163341563
  0.9414338258783630  0.6428783673652845  0.2511827632750894
  0.0720518555852365  0.1865973500987721  0.2514892184441067
  0.0656897898804729  0.5666414507304935  0.7257214212015271
  0.4277598503140894  0.6868683563421811  0.7535403645053336
  0.4416164864780754  0.6116142668598954  0.7276769320377880
  0.5584065823065885  0.1432623796026462  0.7495037238479085
  0.9480408064975734  0.1120732357854450  0.7273182660559385
  0.4340519362492685  0.0669940959937279  0.2255039632725655
  0.5627929547296375  0.4692357601012773  0.0503866631176564
  0.4375371167020106  0.2852599509599969  0.4239132326551101
  0.2164453774356474  0.4562402829021863  0.9029437291531153
  0.2797175652145754  0.7971217499135577  0.5767388991587268
  0.0663486091194230  0.9688748493001569  0.0540602486633475
  0.2197820437329838  0.2972634143659008  0.0731037783547279
  0.7190985600713304  0.9571247003900822  0.9042834502352264
  0.9328404305694065  0.7855145135143005  0.4269558213627249
  0.2832024268792210  0.9560837703252929  0.4052535573781313
  0.7807952401122478  0.4573681832994865  0.4012300883365469
  0.5669628665209601  0.2856298928475951  0.9230548766357316
  0.9369220823528579  0.9692276932275803  0.5530795862953966
  0.7839647057583932  0.2983640564156218  0.5715774332015968
  0.4337339569516132  0.4688664060223147  0.5513452429918360
  0.0620046409911765  0.7851490261488578  0.9276789742784075
  0.7160133861216167  0.7982359410666078  0.0758860886058059
  0.8425819044040566  0.9164483699900785  0.1488160155356510
  0.9118840064722988  0.9204786935508409  0.3535958866590931
  0.8408346787548098  0.8385458276996403  0.8315027740241803
  0.6571563455956095  0.4166062165440891  0.6453512701221769
  0.5899111372440302  0.3344159927481982  0.1229410311461336
  0.0870545750183709  0.8338655679836933  0.1274150816185013
  0.5877924938504293  0.4205688951491595  0.8502272222935048
  0.6589800106755348  0.3386481280008198  0.3276053297171089
  0.4107476079544483  0.4201288718322331  0.3511024909212637
  0.1563381552002738  0.8378532578158087  0.3323069094084730
  0.0892444484384995  0.9200562972281219  0.8543646750488776
  0.4126436807159308  0.3339748941584091  0.6237455647997265
  0.9098668355581765  0.8343208834622686  0.6267103859480372
  0.1582545787544447  0.9158087582739469  0.6495509261631724
  0.3433484666990196  0.3379726786609751  0.8286650542574776
  0.3416087245530051  0.4159334049817645  0.1464391470332274
  0.7752586963844479  0.0219529714561020  0.2081524750454165
  0.7698110815422297  0.7332801619863361  0.7712936616529120
  0.7246895390237853  0.5220357055372631  0.7064715829669055
  0.7300238547143749  0.2333908436985226  0.2676887335555094
  0.2237097826913867  0.7323795081134534  0.2718976333837020
  0.2703095476527011  0.5211304254668221  0.2077439329283806
  0.2294656803363253  0.0210804770799555  0.7091115534096488
  0.2757859551883470  0.2325032327879839  0.7685678269981508
  0.6458076054541522  0.0069621782163054  0.5493805951489321
  0.9064225326445694  0.0370262832652841  0.8685488461898387
  0.9001965124613776  0.7179661076648500  0.1114314240336611
  0.5933821008260551  0.5373226842467602  0.3673829469571714
  0.5997399147601996  0.2182581059713513  0.6082721063302046
  0.3531824738467577  0.7476475220906380  0.9308601209663081
  0.8540012213775796  0.5068252614793352  0.0476066878206964
  0.8588878996884901  0.2484575428664613  0.9258803877246677
  0.1414501314835448  0.5057979693621633  0.5494451874307344
  0.0930684251407143  0.7170219558978630  0.6119741110958046
  0.0990759336856257  0.0362487218557845  0.3688405419094778
  0.4067811103497192  0.2173733637229276  0.1081407552417346
  0.6409812138495639  0.7485437658257084  0.4296766081994221
  0.3584734239056147  0.0059829894215184  0.0506044755006627
  0.1462829678823638  0.2475439466765934  0.4275547428952891
  0.4007577344903268  0.5365313240751703  0.8675452958845540
 
  0.00000000E+00  0.00000000E+00  0.00000000E+00
  0.00000000E+00  0.00000000E+00  0.00000000E+00
  0.00000000E+00  0.00000000E+00  0.00000000E+00
  0.00000000E+00  0.00000000E+00  0.00000000E+00
  0.00000000E+00  0.00000000E+00  0.00000000E+00
  0.00000000E+00  0.00000000E+00  0.00000000E+00
  0.00000000E+00  0.00000000E+00  0.00000000E+00
  0.00000000E+00  0.00000000E+00  0.00000000E+00
  0.00000000E+00  0.00000000E+00  0.00000000E+00
  0.00000000E+00  0.00000000E+00  0.00000000E+00
  0.00000000E+00  0.00000000E+00  0.00000000E+00
  0.00000000E+00  0.00000000E+00  0.00000000E+00
  0.00000000E+00  0.00000000E+00  0.00000000E+00
  0.00000000E+00  0.00000000E+00  0.00000000E+00
  0.00000000E+00  0.00000000E+00  0.00000000E+00
  0.00000000E+00  0.00000000E+00  0.00000000E+00
  0.00000000E+00  0.00000000E+00  0.00000000E+00
  0.00000000E+00  0.00000000E+00  0.00000000E+00
  0.00000000E+00  0.00000000E+00  0.00000000E+00
  0.00000000E+00  0.00000000E+00  0.00000000E+00
  0.00000000E+00  0.00000000E+00  0.00000000E+00
  0.00000000E+00  0.00000000E+00  0.00000000E+00
  0.00000000E+00  0.00000000E+00  0.00000000E+00
  0.00000000E+00  0.00000000E+00  0.00000000E+00
  0.00000000E+00  0.00000000E+00  0.00000000E+00
  0.00000000E+00  0.00000000E+00  0.00000000E+00
  0.00000000E+00  0.00000000E+00  0.00000000E+00
  0.00000000E+00  0.00000000E+00  0.00000000E+00
  0.00000000E+00  0.00000000E+00  0.00000000E+00
  0.00000000E+00  0.00000000E+00  0.00000000E+00
  0.00000000E+00  0.00000000E+00  0.00000000E+00
  0.00000000E+00  0.00000000E+00  0.00000000E+00
  0.00000000E+00  0.00000000E+00  0.00000000E+00
  0.00000000E+00  0.00000000E+00  0.00000000E+00
  0.00000000E+00  0.00000000E+00  0.00000000E+00
  0.00000000E+00  0.00000000E+00  0.00000000E+00
  0.00000000E+00  0.00000000E+00  0.00000000E+00
  0.00000000E+00  0.00000000E+00  0.00000000E+00
  0.00000000E+00  0.00000000E+00  0.00000000E+00
  0.00000000E+00  0.00000000E+00  0.00000000E+00
  0.00000000E+00  0.00000000E+00  0.00000000E+00
  0.00000000E+00  0.00000000E+00  0.00000000E+00
  0.00000000E+00  0.00000000E+00  0.00000000E+00
  0.00000000E+00  0.00000000E+00  0.00000000E+00
  0.00000000E+00  0.00000000E+00  0.00000000E+00
  0.00000000E+00  0.00000000E+00  0.00000000E+00
  0.00000000E+00  0.00000000E+00  0.00000000E+00
  0.00000000E+00  0.00000000E+00  0.00000000E+00
  0.00000000E+00  0.00000000E+00  0.00000000E+00
  0.00000000E+00  0.00000000E+00  0.00000000E+00
  0.00000000E+00  0.00000000E+00  0.00000000E+00
  0.00000000E+00  0.00000000E+00  0.00000000E+00
  0.00000000E+00  0.00000000E+00  0.00000000E+00
  0.00000000E+00  0.00000000E+00  0.00000000E+00
  0.00000000E+00  0.00000000E+00  0.00000000E+00
  0.00000000E+00  0.00000000E+00  0.00000000E+00
  0.00000000E+00  0.00000000E+00  0.00000000E+00
  0.00000000E+00  0.00000000E+00  0.00000000E+00
  0.00000000E+00  0.00000000E+00  0.00000000E+00
  0.00000000E+00  0.00000000E+00  0.00000000E+00
  0.00000000E+00  0.00000000E+00  0.00000000E+00
  0.00000000E+00  0.00000000E+00  0.00000000E+00
  0.00000000E+00  0.00000000E+00  0.00000000E+00
  0.00000000E+00  0.00000000E+00  0.00000000E+00
  0.00000000E+00  0.00000000E+00  0.00000000E+00
  0.00000000E+00  0.00000000E+00  0.00000000E+00
  0.00000000E+00  0.00000000E+00  0.00000000E+00
  0.00000000E+00  0.00000000E+00  0.00000000E+00
  0.00000000E+00  0.00000000E+00  0.00000000E+00
  0.00000000E+00  0.00000000E+00  0.00000000E+00
  0.00000000E+00  0.00000000E+00  0.00000000E+00
  0.00000000E+00  0.00000000E+00  0.00000000E+00
  0.00000000E+00  0.00000000E+00  0.00000000E+00
  0.00000000E+00  0.00000000E+00  0.00000000E+00
  0.00000000E+00  0.00000000E+00  0.00000000E+00
  0.00000000E+00  0.00000000E+00  0.00000000E+00
  0.00000000E+00  0.00000000E+00  0.00000000E+00
  0.00000000E+00  0.00000000E+00  0.00000000E+00
  0.00000000E+00  0.00000000E+00  0.00000000E+00
  0.00000000E+00  0.00000000E+00  0.00000000E+00
  0.00000000E+00  0.00000000E+00  0.00000000E+00
  0.00000000E+00  0.00000000E+00  0.00000000E+00
  0.00000000E+00  0.00000000E+00  0.00000000E+00
  0.00000000E+00  0.00000000E+00  0.00000000E+00
  0.00000000E+00  0.00000000E+00  0.00000000E+00
  0.00000000E+00  0.00000000E+00  0.00000000E+00
  0.00000000E+00  0.00000000E+00  0.00000000E+00
  0.00000000E+00  0.00000000E+00  0.00000000E+00
  0.00000000E+00  0.00000000E+00  0.00000000E+00
  0.00000000E+00  0.00000000E+00  0.00000000E+00
  0.00000000E+00  0.00000000E+00  0.00000000E+00
  0.00000000E+00  0.00000000E+00  0.00000000E+00
  0.00000000E+00  0.00000000E+00  0.00000000E+00
  0.00000000E+00  0.00000000E+00  0.00000000E+00
  0.00000000E+00  0.00000000E+00  0.00000000E+00
  0.00000000E+00  0.00000000E+00  0.00000000E+00
  0.00000000E+00  0.00000000E+00  0.00000000E+00
  0.00000000E+00  0.00000000E+00  0.00000000E+00
  0.00000000E+00  0.00000000E+00  0.00000000E+00
  0.00000000E+00  0.00000000E+00  0.00000000E+00
  0.00000000E+00  0.00000000E+00  0.00000000E+00
  0.00000000E+00  0.00000000E+00  0.00000000E+00
  0.00000000E+00  0.00000000E+00  0.00000000E+00
  0.00000000E+00  0.00000000E+00  0.00000000E+00
  0.00000000E+00  0.00000000E+00  0.00000000E+00
  0.00000000E+00  0.00000000E+00  0.00000000E+00
  0.00000000E+00  0.00000000E+00  0.00000000E+00
  0.00000000E+00  0.00000000E+00  0.00000000E+00
  0.00000000E+00  0.00000000E+00  0.00000000E+00
  0.00000000E+00  0.00000000E+00  0.00000000E+00
  0.00000000E+00  0.00000000E+00  0.00000000E+00
  0.00000000E+00  0.00000000E+00  0.00000000E+00
  0.00000000E+00  0.00000000E+00  0.00000000E+00
  0.00000000E+00  0.00000000E+00  0.00000000E+00
  0.00000000E+00  0.00000000E+00  0.00000000E+00
  0.00000000E+00  0.00000000E+00  0.00000000E+00
  0.00000000E+00  0.00000000E+00  0.00000000E+00
  0.00000000E+00  0.00000000E+00  0.00000000E+00
  0.00000000E+00  0.00000000E+00  0.00000000E+00
  0.00000000E+00  0.00000000E+00  0.00000000E+00
  0.00000000E+00  0.00000000E+00  0.00000000E+00
  0.00000000E+00  0.00000000E+00  0.00000000E+00
  0.00000000E+00  0.00000000E+00  0.00000000E+00
  0.00000000E+00  0.00000000E+00  0.00000000E+00
  0.00000000E+00  0.00000000E+00  0.00000000E+00
  0.00000000E+00  0.00000000E+00  0.00000000E+00
  0.00000000E+00  0.00000000E+00  0.00000000E+00
  0.00000000E+00  0.00000000E+00  0.00000000E+00
  0.00000000E+00  0.00000000E+00  0.00000000E+00
  0.00000000E+00  0.00000000E+00  0.00000000E+00
  0.00000000E+00  0.00000000E+00  0.00000000E+00
  0.00000000E+00  0.00000000E+00  0.00000000E+00
  0.00000000E+00  0.00000000E+00  0.00000000E+00
  0.00000000E+00  0.00000000E+00  0.00000000E+00
  0.00000000E+00  0.00000000E+00  0.00000000E+00
  0.00000000E+00  0.00000000E+00  0.00000000E+00
  0.00000000E+00  0.00000000E+00  0.00000000E+00
  0.00000000E+00  0.00000000E+00  0.00000000E+00
  0.00000000E+00  0.00000000E+00  0.00000000E+00
  0.00000000E+00  0.00000000E+00  0.00000000E+00
  0.00000000E+00  0.00000000E+00  0.00000000E+00
  0.00000000E+00  0.00000000E+00  0.00000000E+00
  0.00000000E+00  0.00000000E+00  0.00000000E+00
  0.00000000E+00  0.00000000E+00  0.00000000E+00
  0.00000000E+00  0.00000000E+00  0.00000000E+00
  0.00000000E+00  0.00000000E+00  0.00000000E+00
  0.00000000E+00  0.00000000E+00  0.00000000E+00
  0.00000000E+00  0.00000000E+00  0.00000000E+00
  0.00000000E+00  0.00000000E+00  0.00000000E+00
  0.00000000E+00  0.00000000E+00  0.00000000E+00
  0.00000000E+00  0.00000000E+00  0.00000000E+00
  0.00000000E+00  0.00000000E+00  0.00000000E+00
  0.00000000E+00  0.00000000E+00  0.00000000E+00
  0.00000000E+00  0.00000000E+00  0.00000000E+00
  0.00000000E+00  0.00000000E+00  0.00000000E+00
  0.00000000E+00  0.00000000E+00  0.00000000E+00
